Sn24 O47                                
   1.00000000000000     
     6.4768679999999996    0.0000000000000000    0.0000000000000000
     0.0000000000000000    9.6441199999999991    0.0000000000000000
     0.0000000000000000    0.0000000000000000   28.9323580000000007
   Sn   O 
    24    47
Selective dynamics
Direct
  0.2500000000000000  0.2500000000000000  0.2916669999999968   F   F   F
  0.2500000000000000  0.7500000000000000  0.2916669999999968   F   F   F
  0.7500000000000000  0.2500000000000000  0.2916669999999968   F   F   F
  0.7500000000000000  0.7500000000000000  0.2916669999999968   F   F   F
  0.0000000000000000  0.0000000000000000  0.3750000000000000   F   F   F
  0.0000000000000000  0.5000000000000000  0.3750000000000000   F   F   F
  0.5000000000000000  0.0000000000000000  0.3750000000000000   F   F   F
  0.5000000000000000  0.5000000000000000  0.3750000000000000   F   F   F
  0.2500000000000000  0.2500000000000000  0.4583330000000032   F   F   F
  0.2500000000000000  0.7500000000000000  0.4583330000000032   F   F   F
  0.7500000000000000  0.2500000000000000  0.4583330000000032   F   F   F
  0.7500000000000000  0.7500000000000000  0.4583330000000032   F   F   F
 -0.0001417154937250 -0.0014576504404027  0.5432621171555914   T   T   T
 -0.0001535936272863  0.4986606357841025  0.5432132987568664   T   T   T
  0.5001417154937245 -0.0014576504404027  0.5432621171555914   T   T   T
  0.5001535936272864  0.4986606357841025  0.5432132987568664   T   T   T
  0.2500000000000000  0.2494182914573523  0.6282769861925254   T   T   T
  0.2500000000000000  0.7480963614435089  0.6282472161184479   T   T   T
  0.7500000000000000  0.2479255844799101  0.6282253451403836   T   T   T
  0.7500000000000000  0.7477242555486091  0.6285376895378597   T   T   T
 -0.0030786309284497 -0.0055189751021396  0.7143423444276891   T   T   T
 -0.0005442909590675  0.4911094434951873  0.7143198656383495   T   T   T
  0.5030786309284497 -0.0055189751021396  0.7143423444276891   T   T   T
  0.5005442909590674  0.4911094434951873  0.7143198656383495   T   T   T
  0.2500000000000000  0.0967800000000025  0.3427399999999992   F   F   F
  0.2500000000000000  0.5967800000000025  0.3427399999999992   F   F   F
  0.7500000000000000  0.0967800000000025  0.3427399999999992   F   F   F
  0.7500000000000000  0.5967800000000025  0.3427399999999992   F   F   F
  0.2500000000000000  0.4032199999999975  0.4072600000000008   F   F   F
  0.2500000000000000  0.9032199999999975  0.4072600000000008   F   F   F
  0.7500000000000000  0.4032199999999975  0.4072600000000008   F   F   F
  0.7500000000000000  0.9032199999999975  0.4072600000000008   F   F   F
  0.0000000000000000  0.1532199999999975  0.2594070000000031   F   F   F
  0.0000000000000000  0.6532199999999975  0.2594070000000031   F   F   F
  0.5000000000000000  0.1532199999999975  0.2594070000000031   F   F   F
  0.5000000000000000  0.6532199999999975  0.2594070000000031   F   F   F
  0.0000000000000000  0.3467800000000025  0.3239269999999976   F   F   F
  0.0000000000000000  0.8467800000000025  0.3239269999999976   F   F   F
  0.5000000000000000  0.3467800000000025  0.3239269999999976   F   F   F
  0.5000000000000000  0.8467800000000025  0.3239269999999976   F   F   F
  0.2500000000000000  0.0964662801094918  0.5106873174932078   T   T   T
  0.2500000000000000  0.5965610029813961  0.5107180963011736   T   T   T
  0.7500000000000000  0.0970503228743178  0.5108219125714472   T   T   T
  0.7500000000000000  0.5966495447989439  0.5106722188707917   T   T   T
  0.2500000000000000  0.3999681093527573  0.5756770039124411   T   T   T
  0.2500000000000000  0.8997212875875785  0.5755731779959622   T   T   T
  0.7500000000000000  0.3995884247164583  0.5755646092989418   T   T   T
  0.7500000000000000  0.8993868695111829  0.5756536655893713   T   T   T
  0.0000000000000000  0.1532199999999975  0.4260730000000024   F   F   F
  0.0000000000000000  0.6532199999999975  0.4260730000000024   F   F   F
  0.5000000000000000  0.1532199999999975  0.4260730000000024   F   F   F
  0.5000000000000000  0.6532199999999975  0.4260730000000024   F   F   F
  0.0000000000000000  0.3467800000000025  0.4905929999999969   F   F   F
  0.0000000000000000  0.8467800000000025  0.4905929999999969   F   F   F
  0.5000000000000000  0.3467800000000025  0.4905929999999969   F   F   F
  0.5000000000000000  0.8467800000000025  0.4905929999999969   F   F   F
  0.2500000000000000  0.1126783934054078  0.6853286127090504   T   T   T
  0.2500000000000000  0.6112807888987918  0.6847693994174815   T   T   T
  0.7500000000000000  0.1079466049498194  0.6838770876581290   T   T   T
  0.7500000000000000  0.6103229234020413  0.6846552902561933   T   T   T
  0.2500000000000000  0.4313564348185262  0.7522560926478175   T   T   T
  0.7500000000000000  0.4298779103542933  0.7522988516493551   T   T   T
  0.7500000000000000  0.9273936902999979  0.7530036034349510   T   T   T
 -0.0000464337863721  0.1487463632270052  0.5965661909832205   T   T   T
  0.0000315597624742  0.6484832850106805  0.5965223043477375   T   T   T
  0.5000464337863720  0.1487463632270052  0.5965661909832205   T   T   T
  0.4999684402375257  0.6484832850106805  0.5965223043477375   T   T   T
 -0.0015211903172450  0.3513396538536758  0.6600592134485683   T   T   T
  0.0006234726367718  0.8506745571217070  0.6600851501260874   T   T   T
  0.5015211903172451  0.3513396538536758  0.6600592134485683   T   T   T
  0.4993765273632281  0.8506745571217070  0.6600851501260874   T   T   T
 
  0.00000000E+00  0.00000000E+00  0.00000000E+00
  0.00000000E+00  0.00000000E+00  0.00000000E+00
  0.00000000E+00  0.00000000E+00  0.00000000E+00
  0.00000000E+00  0.00000000E+00  0.00000000E+00
  0.00000000E+00  0.00000000E+00  0.00000000E+00
  0.00000000E+00  0.00000000E+00  0.00000000E+00
  0.00000000E+00  0.00000000E+00  0.00000000E+00
  0.00000000E+00  0.00000000E+00  0.00000000E+00
  0.00000000E+00  0.00000000E+00  0.00000000E+00
  0.00000000E+00  0.00000000E+00  0.00000000E+00
  0.00000000E+00  0.00000000E+00  0.00000000E+00
  0.00000000E+00  0.00000000E+00  0.00000000E+00
  0.00000000E+00  0.00000000E+00  0.00000000E+00
  0.00000000E+00  0.00000000E+00  0.00000000E+00
  0.00000000E+00  0.00000000E+00  0.00000000E+00
  0.00000000E+00  0.00000000E+00  0.00000000E+00
  0.00000000E+00  0.00000000E+00  0.00000000E+00
  0.00000000E+00  0.00000000E+00  0.00000000E+00
  0.00000000E+00  0.00000000E+00  0.00000000E+00
  0.00000000E+00  0.00000000E+00  0.00000000E+00
  0.00000000E+00  0.00000000E+00  0.00000000E+00
  0.00000000E+00  0.00000000E+00  0.00000000E+00
  0.00000000E+00  0.00000000E+00  0.00000000E+00
  0.00000000E+00  0.00000000E+00  0.00000000E+00
  0.00000000E+00  0.00000000E+00  0.00000000E+00
  0.00000000E+00  0.00000000E+00  0.00000000E+00
  0.00000000E+00  0.00000000E+00  0.00000000E+00
  0.00000000E+00  0.00000000E+00  0.00000000E+00
  0.00000000E+00  0.00000000E+00  0.00000000E+00
  0.00000000E+00  0.00000000E+00  0.00000000E+00
  0.00000000E+00  0.00000000E+00  0.00000000E+00
  0.00000000E+00  0.00000000E+00  0.00000000E+00
  0.00000000E+00  0.00000000E+00  0.00000000E+00
  0.00000000E+00  0.00000000E+00  0.00000000E+00
  0.00000000E+00  0.00000000E+00  0.00000000E+00
  0.00000000E+00  0.00000000E+00  0.00000000E+00
  0.00000000E+00  0.00000000E+00  0.00000000E+00
  0.00000000E+00  0.00000000E+00  0.00000000E+00
  0.00000000E+00  0.00000000E+00  0.00000000E+00
  0.00000000E+00  0.00000000E+00  0.00000000E+00
  0.00000000E+00  0.00000000E+00  0.00000000E+00
  0.00000000E+00  0.00000000E+00  0.00000000E+00
  0.00000000E+00  0.00000000E+00  0.00000000E+00
  0.00000000E+00  0.00000000E+00  0.00000000E+00
  0.00000000E+00  0.00000000E+00  0.00000000E+00
  0.00000000E+00  0.00000000E+00  0.00000000E+00
  0.00000000E+00  0.00000000E+00  0.00000000E+00
  0.00000000E+00  0.00000000E+00  0.00000000E+00
  0.00000000E+00  0.00000000E+00  0.00000000E+00
  0.00000000E+00  0.00000000E+00  0.00000000E+00
  0.00000000E+00  0.00000000E+00  0.00000000E+00
  0.00000000E+00  0.00000000E+00  0.00000000E+00
  0.00000000E+00  0.00000000E+00  0.00000000E+00
  0.00000000E+00  0.00000000E+00  0.00000000E+00
  0.00000000E+00  0.00000000E+00  0.00000000E+00
  0.00000000E+00  0.00000000E+00  0.00000000E+00
  0.00000000E+00  0.00000000E+00  0.00000000E+00
  0.00000000E+00  0.00000000E+00  0.00000000E+00
  0.00000000E+00  0.00000000E+00  0.00000000E+00
  0.00000000E+00  0.00000000E+00  0.00000000E+00
  0.00000000E+00  0.00000000E+00  0.00000000E+00
  0.00000000E+00  0.00000000E+00  0.00000000E+00
  0.00000000E+00  0.00000000E+00  0.00000000E+00
  0.00000000E+00  0.00000000E+00  0.00000000E+00
  0.00000000E+00  0.00000000E+00  0.00000000E+00
  0.00000000E+00  0.00000000E+00  0.00000000E+00
  0.00000000E+00  0.00000000E+00  0.00000000E+00
  0.00000000E+00  0.00000000E+00  0.00000000E+00
  0.00000000E+00  0.00000000E+00  0.00000000E+00
  0.00000000E+00  0.00000000E+00  0.00000000E+00
  0.00000000E+00  0.00000000E+00  0.00000000E+00
