Sn24 O47
1.0
   6.4768679999999996    0.0000000000000000    0.0000000000000000
   0.0000000000000000    9.6441199999999991    0.0000000000000000
   0.0000000000000000    0.0000000000000000   28.9323580000000007
Sn O
24 47
Selective dynamics
direct
   0.2500000000000000    0.2500000000000000    0.2916670000000000 F F F Sn
   0.2500000000000000    0.7500000000000000    0.2916670000000000 F F F Sn
   0.7500000000000000    0.2500000000000000    0.2916670000000000 F F F Sn
   0.7500000000000000    0.7500000000000000    0.2916670000000000 F F F Sn
   0.0000000000000000    0.0000000000000000    0.3750000000000000 F F F Sn
   0.0000000000000000    0.5000000000000000    0.3750000000000000 F F F Sn
   0.5000000000000000    0.0000000000000000    0.3750000000000000 F F F Sn
   0.5000000000000000    0.5000000000000000    0.3750000000000000 F F F Sn
   0.2500000000000000    0.2500000000000000    0.4583330000000000 F F F Sn
   0.2500000000000000    0.7500000000000000    0.4583330000000000 F F F Sn
   0.7500000000000000    0.2500000000000000    0.4583330000000000 F F F Sn
   0.7500000000000000    0.7500000000000000    0.4583330000000000 F F F Sn
   0.0000000000000000    0.0000000000000000    0.5416669999999999 T T T Sn
   0.0000000000000000    0.5000000000000000    0.5416669999999999 T T T Sn
   0.5000000000000000    0.0000000000000000    0.5416669999999999 T T T Sn
   0.5000000000000000    0.5000000000000000    0.5416669999999999 T T T Sn
   0.2500000000000000    0.2500000000000000    0.6249999999999999 T T T Sn
   0.2500000000000000    0.7500000000000000    0.6249999999999999 T T T Sn
   0.7500000000000000    0.2500000000000000    0.6249999999999999 T T T Sn
   0.7500000000000000    0.7500000000000000    0.6249999999999999 T T T Sn
   0.0000000000000000    0.0000000000000000    0.7083329999999999 T T T Sn
   0.0000000000000000    0.5000000000000000    0.7083329999999999 T T T Sn
   0.5000000000000000    0.0000000000000000    0.7083329999999999 T T T Sn
   0.5000000000000000    0.5000000000000000    0.7083329999999999 T T T Sn
   0.2500000000000000    0.0967800000000000    0.3427399999999999 F F F O
   0.2500000000000000    0.5967800000000000    0.3427399999999999 F F F O
   0.7500000000000000    0.0967800000000000    0.3427399999999999 F F F O
   0.7500000000000000    0.5967800000000000    0.3427399999999999 F F F O
   0.2500000000000000    0.4032200000000000    0.4072600000000000 F F F O
   0.2500000000000000    0.9032200000000000    0.4072600000000000 F F F O
   0.7500000000000000    0.4032200000000000    0.4072600000000000 F F F O
   0.7500000000000000    0.9032200000000000    0.4072600000000000 F F F O
   0.0000000000000000    0.1532200000000000    0.2594070000000000 F F F O
   0.0000000000000000    0.6532200000000000    0.2594070000000000 F F F O
   0.5000000000000000    0.1532200000000000    0.2594070000000000 F F F O
   0.5000000000000000    0.6532200000000000    0.2594070000000000 F F F O
   0.0000000000000000    0.3467800000000000    0.3239270000000000 F F F O
   0.0000000000000000    0.8467800000000000    0.3239270000000000 F F F O
   0.5000000000000000    0.3467800000000000    0.3239270000000000 F F F O
   0.5000000000000000    0.8467800000000000    0.3239270000000000 F F F O
   0.2500000000000000    0.0967800000000000    0.5094070000000001 T T T O
   0.2500000000000000    0.5967800000000000    0.5094070000000001 T T T O
   0.7500000000000000    0.0967800000000000    0.5094070000000001 T T T O
   0.7500000000000000    0.5967800000000000    0.5094070000000001 T T T O
   0.2500000000000000    0.4032200000000000    0.5739269999999999 T T T O
   0.2500000000000000    0.9032200000000000    0.5739269999999999 T T T O
   0.7500000000000000    0.4032200000000000    0.5739269999999999 T T T O
   0.7500000000000000    0.9032200000000000    0.5739269999999999 T T T O
   0.0000000000000000    0.1532200000000000    0.4260729999999999 F F F O
   0.0000000000000000    0.6532200000000000    0.4260729999999999 F F F O
   0.5000000000000000    0.1532200000000000    0.4260729999999999 F F F O
   0.5000000000000000    0.6532200000000000    0.4260729999999999 F F F O
   0.0000000000000000    0.3467800000000000    0.4905930000000000 F F F O
   0.0000000000000000    0.8467800000000000    0.4905930000000000 F F F O
   0.5000000000000000    0.3467800000000000    0.4905930000000000 F F F O
   0.5000000000000000    0.8467800000000000    0.4905930000000000 F F F O
   0.2500000000000000    0.0967800000000000    0.6760729999999999 T T T O
   0.2500000000000000    0.5967800000000000    0.6760729999999999 T T T O
   0.7500000000000000    0.0967800000000000    0.6760729999999999 T T T O
   0.7500000000000000    0.5967800000000000    0.6760729999999999 T T T O
   0.2500000000000000    0.4032200000000000    0.7405929999999998 T T T O
   0.7500000000000000    0.4032200000000000    0.7405929999999998 T T T O
   0.7500000000000000    0.9032200000000000    0.7405929999999998 T T T O
   0.0000000000000000    0.1532200000000000    0.5927399999999999 T T T O
   0.0000000000000000    0.6532200000000000    0.5927399999999999 T T T O
   0.5000000000000000    0.1532200000000000    0.5927399999999999 T T T O
   0.5000000000000000    0.6532200000000000    0.5927399999999999 T T T O
   0.0000000000000000    0.3467800000000000    0.6572599999999998 T T T O
   0.0000000000000000    0.8467800000000000    0.6572599999999998 T T T O
   0.5000000000000000    0.3467800000000000    0.6572599999999998 T T T O
   0.5000000000000000    0.8467800000000000    0.6572599999999998 T T T O
