H1 Ir24 O96                             
   1.00000000000000     
     8.8825717399999995    0.0000000000000000    0.0000000000000006
     0.0000000000000016   10.4413266599999996    0.0000000000000006
     0.0000000000000000    0.0000000000000000   33.7486279399999987
   H    Ir   O 
     1    24    96
Selective dynamics
Direct
  0.3337842711400053  0.2695762257101252  0.7481466766842294   T   T   T
  0.0000000000000000  0.2500000000000000  0.3873731500000019   F   F   F
  0.0000000000000000  0.7500000000000000  0.3873731500000019   F   F   F
  0.5000000000000000  0.2500000000000000  0.3873731500000019   F   F   F
  0.5000000000000000  0.7500000000000000  0.3873731500000019   F   F   F
  0.2500000000000000  0.2500000000000000  0.3040398099999990   F   F   F
  0.2500000000000000  0.7500000000000000  0.3040398099999990   F   F   F
  0.7500000000000000  0.2500000000000000  0.3040398099999990   F   F   F
  0.7500000000000000  0.7500000000000000  0.3040398099999990   F   F   F
  0.9969452511010203  0.2515398450895789  0.5535285543180158   T   T   T
 -0.0006087754372009  0.7521015296340510  0.5538190155516522   T   T   T
  0.5000877866713852  0.2528018344966054  0.5538141778138931   T   T   T
  0.4995325449470402  0.7516131482932841  0.5538644494237662   T   T   T
  0.2500000000000000  0.2500000000000000  0.4707064799999969   F   F   F
  0.2500000000000000  0.7500000000000000  0.4707064799999969   F   F   F
  0.7500000000000000  0.2500000000000000  0.4707064799999969   F   F   F
  0.7500000000000000  0.7500000000000000  0.4707064799999969   F   F   F
  0.0126570537840996  0.2738882947546181  0.7224972794741079   T   T   T
  0.0036519557497460  0.7540251878491814  0.7247220066344376   T   T   T
  0.5409851302533580  0.2068409929749753  0.7049869411878681   T   T   T
  0.5036203980252402  0.7505550015919445  0.7259708622399125   T   T   T
  0.2461165149481349  0.2498822176753372  0.6353972080901714   T   T   T
  0.2499965511163886  0.7535572140505459  0.6375357369105465   T   T   T
  0.7646847120932430  0.2826786846662436  0.6373531982674265   T   T   T
  0.7491636354068806  0.7555070947049467  0.6378080582688817   T   T   T
  0.3743057900000011  0.1712332649999979  0.2658821799999984   F   F   F
  0.3743057900000011  0.6712332649999979  0.2658821799999984   F   F   F
  0.8743057900000011  0.1712332649999979  0.2658821799999984   F   F   F
  0.8743057900000011  0.6712332649999979  0.2658821799999984   F   F   F
  0.1106602850000016  0.1112853750000014  0.3945979200000025   F   F   F
  0.1106602850000016  0.6112853750000014  0.3945979200000025   F   F   F
  0.6106602850000016  0.1112853750000014  0.3945979200000025   F   F   F
  0.6106602850000016  0.6112853750000014  0.3945979200000025   F   F   F
  0.3606602850000016  0.3887146249999986  0.3112645799999996   F   F   F
  0.3606602850000016  0.8887146249999986  0.3112645799999996   F   F   F
  0.8606602850000016  0.3887146249999986  0.3112645799999996   F   F   F
  0.8606602850000016  0.8887146249999986  0.3112645799999996   F   F   F
  0.1243057900000011  0.3287667350000021  0.3492155100000005   F   F   F
  0.1243057900000011  0.8287667350000021  0.3492155100000005   F   F   F
  0.6243057900000011  0.3287667350000021  0.3492155100000005   F   F   F
  0.6243057900000011  0.8287667350000021  0.3492155100000005   F   F   F
  0.1256942099999989  0.3287667350000021  0.2658821799999984   F   F   F
  0.1256942099999989  0.8287667350000021  0.2658821799999984   F   F   F
  0.6256942099999989  0.3287667350000021  0.2658821799999984   F   F   F
  0.6256942099999989  0.8287667350000021  0.2658821799999984   F   F   F
  0.3893397149999984  0.3887146249999986  0.3945979200000025   F   F   F
  0.3893397149999984  0.8887146249999986  0.3945979200000025   F   F   F
  0.8893397149999984  0.3887146249999986  0.3945979200000025   F   F   F
  0.8893397149999984  0.8887146249999986  0.3945979200000025   F   F   F
  0.1393397149999984  0.1112853750000014  0.3112645799999996   F   F   F
  0.1393397149999984  0.6112853750000014  0.3112645799999996   F   F   F
  0.6393397149999984  0.1112853750000014  0.3112645799999996   F   F   F
  0.6393397149999984  0.6112853750000014  0.3112645799999996   F   F   F
  0.3756942099999989  0.1712332649999979  0.3492155100000005   F   F   F
  0.3756942099999989  0.6712332649999979  0.3492155100000005   F   F   F
  0.8756942099999989  0.1712332649999979  0.3492155100000005   F   F   F
  0.8756942099999989  0.6712332649999979  0.3492155100000005   F   F   F
  0.3743057900000011  0.1712332649999979  0.4325488400000026   F   F   F
  0.3743057900000011  0.6712332649999979  0.4325488400000026   F   F   F
  0.8743057900000011  0.1712332649999979  0.4325488400000026   F   F   F
  0.8743057900000011  0.6712332649999979  0.4325488400000026   F   F   F
  0.1051675503881458  0.1126391846217250  0.5622177400861074   T   T   T
  0.1079119406247211  0.6145939373015191  0.5635673972244537   T   T   T
  0.6152744658041637  0.1187049824848602  0.5633855865348323   T   T   T
  0.6096453967886193  0.6147301018081730  0.5634986535590952   T   T   T
  0.3606602850000016  0.3887146249999986  0.4779312499999975   F   F   F
  0.3606602850000016  0.8887146249999986  0.4779312499999975   F   F   F
  0.8606602850000016  0.3887146249999986  0.4779312499999975   F   F   F
  0.8606602850000016  0.8887146249999986  0.4779312499999975   F   F   F
  0.1244155913285984  0.3286405698882817  0.5158361706232294   T   T   T
  0.1257407144079171  0.8290928828384132  0.5163162258879109   T   T   T
  0.6265603642366516  0.3305019782675884  0.5161719075602959   T   T   T
  0.6249976181146041  0.8291863267231773  0.5163192930044654   T   T   T
  0.1256942099999989  0.3287667350000021  0.4325488400000026   F   F   F
  0.1256942099999989  0.8287667350000021  0.4325488400000026   F   F   F
  0.6256942099999989  0.3287667350000021  0.4325488400000026   F   F   F
  0.6256942099999989  0.8287667350000021  0.4325488400000026   F   F   F
  0.3890101837054563  0.3906681438800482  0.5612925067766042   T   T   T
  0.3899782826943352  0.8893677931559981  0.5626745104421388   T   T   T
  0.8881443662433444  0.3915494406776680  0.5602427475703783   T   T   T
  0.8910987482341228  0.8903981935823507  0.5626876380576175   T   T   T
  0.1393397149999984  0.1112853750000014  0.4779312499999975   F   F   F
  0.1393397149999984  0.6112853750000014  0.4779312499999975   F   F   F
  0.6393397149999984  0.1112853750000014  0.4779312499999975   F   F   F
  0.6393397149999984  0.6112853750000014  0.4779312499999975   F   F   F
  0.3773595467044815  0.1716895791120435  0.5161620486939092   T   T   T
  0.3747751503877237  0.6719718248821832  0.5165516845304320   T   T   T
  0.8720188008911801  0.1711212493255812  0.5163142420971429   T   T   T
  0.8738132803170635  0.6724052959607367  0.5166324451068343   T   T   T
  0.3709655271848113  0.1705586113104068  0.5987553269794293   T   T   T
  0.3773891795130520  0.6724961635320310  0.6022376381189536   T   T   T
  0.8730362018927184  0.1808224222684739  0.6020977374107827   T   T   T
  0.8776392633113573  0.6746639432490940  0.6027679243702231   T   T   T
  0.1404694176132699  0.1770526468030641  0.7482326939244699   T   T   T
  0.1086670760019711  0.6453750861189846  0.7526778608730418   T   T   T
  0.6264610770752211  0.1089384630395814  0.7396459547577795   T   T   T
  0.6130623602075336  0.6466327914286889  0.7542632350246018   T   T   T
  0.3629073144669958  0.3819819533781800  0.6463314478518621   T   T   T
  0.3636172181089354  0.8840291151467242  0.6510045323629686   T   T   T
  0.8826928847964567  0.4129870267083820  0.6458717508740359   T   T   T
  0.8585531113675965  0.8882728251022111  0.6515335311358641   T   T   T
  0.1291365593785262  0.3486864859818273  0.6845666009606118   T   T   T
  0.1289101622152324  0.8385663650187875  0.6922007692313763   T   T   T
  0.6354357269250199  0.3521668512334832  0.6872361167675821   T   T   T
  0.6254935440668217  0.8385343386126490  0.6934578706323045   T   T   T
  0.1259879259923083  0.3344384697300799  0.5989022123030473   T   T   T
  0.1206395328994634  0.8332428982656020  0.6026326466832206   T   T   T
  0.6211168663519877  0.3383647262262745  0.6018380447951778   T   T   T
  0.6199571106879713  0.8336033320470696  0.6024015647144881   T   T   T
  0.4303613537079133  0.3124337327742580  0.7417597111462682   T   T   T
  0.3976951599088342  0.8569412834058417  0.7545451896997952   T   T   T
  0.9075676347903952  0.3752916564307530  0.7524395236881692   T   T   T
  0.9022997530773319  0.8621393019549217  0.7537501796927828   T   T   T
  0.1240357434624301  0.1215087816677283  0.6460198078611911   T   T   T
  0.1419711074409747  0.6206765058213576  0.6518801867628573   T   T   T
  0.6389644858016250  0.1448089865331879  0.6567055371530764   T   T   T
  0.6404388186815679  0.6222388463698243  0.6515894972287970   T   T   T
  0.3605759403897983  0.1566460069110933  0.6832004038430851   T   T   T
  0.3785590052686069  0.6663163047087676  0.6937986060291119   T   T   T
  0.8801513188565696  0.1969185387330289  0.6886768652615550   T   T   T
  0.8754894405394594  0.6707711494436852  0.6928884063281969   T   T   T
 
  0.00000000E+00  0.00000000E+00  0.00000000E+00
  0.00000000E+00  0.00000000E+00  0.00000000E+00
  0.00000000E+00  0.00000000E+00  0.00000000E+00
  0.00000000E+00  0.00000000E+00  0.00000000E+00
  0.00000000E+00  0.00000000E+00  0.00000000E+00
  0.00000000E+00  0.00000000E+00  0.00000000E+00
  0.00000000E+00  0.00000000E+00  0.00000000E+00
  0.00000000E+00  0.00000000E+00  0.00000000E+00
  0.00000000E+00  0.00000000E+00  0.00000000E+00
  0.00000000E+00  0.00000000E+00  0.00000000E+00
  0.00000000E+00  0.00000000E+00  0.00000000E+00
  0.00000000E+00  0.00000000E+00  0.00000000E+00
  0.00000000E+00  0.00000000E+00  0.00000000E+00
  0.00000000E+00  0.00000000E+00  0.00000000E+00
  0.00000000E+00  0.00000000E+00  0.00000000E+00
  0.00000000E+00  0.00000000E+00  0.00000000E+00
  0.00000000E+00  0.00000000E+00  0.00000000E+00
  0.00000000E+00  0.00000000E+00  0.00000000E+00
  0.00000000E+00  0.00000000E+00  0.00000000E+00
  0.00000000E+00  0.00000000E+00  0.00000000E+00
  0.00000000E+00  0.00000000E+00  0.00000000E+00
  0.00000000E+00  0.00000000E+00  0.00000000E+00
  0.00000000E+00  0.00000000E+00  0.00000000E+00
  0.00000000E+00  0.00000000E+00  0.00000000E+00
  0.00000000E+00  0.00000000E+00  0.00000000E+00
  0.00000000E+00  0.00000000E+00  0.00000000E+00
  0.00000000E+00  0.00000000E+00  0.00000000E+00
  0.00000000E+00  0.00000000E+00  0.00000000E+00
  0.00000000E+00  0.00000000E+00  0.00000000E+00
  0.00000000E+00  0.00000000E+00  0.00000000E+00
  0.00000000E+00  0.00000000E+00  0.00000000E+00
  0.00000000E+00  0.00000000E+00  0.00000000E+00
  0.00000000E+00  0.00000000E+00  0.00000000E+00
  0.00000000E+00  0.00000000E+00  0.00000000E+00
  0.00000000E+00  0.00000000E+00  0.00000000E+00
  0.00000000E+00  0.00000000E+00  0.00000000E+00
  0.00000000E+00  0.00000000E+00  0.00000000E+00
  0.00000000E+00  0.00000000E+00  0.00000000E+00
  0.00000000E+00  0.00000000E+00  0.00000000E+00
  0.00000000E+00  0.00000000E+00  0.00000000E+00
  0.00000000E+00  0.00000000E+00  0.00000000E+00
  0.00000000E+00  0.00000000E+00  0.00000000E+00
  0.00000000E+00  0.00000000E+00  0.00000000E+00
  0.00000000E+00  0.00000000E+00  0.00000000E+00
  0.00000000E+00  0.00000000E+00  0.00000000E+00
  0.00000000E+00  0.00000000E+00  0.00000000E+00
  0.00000000E+00  0.00000000E+00  0.00000000E+00
  0.00000000E+00  0.00000000E+00  0.00000000E+00
  0.00000000E+00  0.00000000E+00  0.00000000E+00
  0.00000000E+00  0.00000000E+00  0.00000000E+00
  0.00000000E+00  0.00000000E+00  0.00000000E+00
  0.00000000E+00  0.00000000E+00  0.00000000E+00
  0.00000000E+00  0.00000000E+00  0.00000000E+00
  0.00000000E+00  0.00000000E+00  0.00000000E+00
  0.00000000E+00  0.00000000E+00  0.00000000E+00
  0.00000000E+00  0.00000000E+00  0.00000000E+00
  0.00000000E+00  0.00000000E+00  0.00000000E+00
  0.00000000E+00  0.00000000E+00  0.00000000E+00
  0.00000000E+00  0.00000000E+00  0.00000000E+00
  0.00000000E+00  0.00000000E+00  0.00000000E+00
  0.00000000E+00  0.00000000E+00  0.00000000E+00
  0.00000000E+00  0.00000000E+00  0.00000000E+00
  0.00000000E+00  0.00000000E+00  0.00000000E+00
  0.00000000E+00  0.00000000E+00  0.00000000E+00
  0.00000000E+00  0.00000000E+00  0.00000000E+00
  0.00000000E+00  0.00000000E+00  0.00000000E+00
  0.00000000E+00  0.00000000E+00  0.00000000E+00
  0.00000000E+00  0.00000000E+00  0.00000000E+00
  0.00000000E+00  0.00000000E+00  0.00000000E+00
  0.00000000E+00  0.00000000E+00  0.00000000E+00
  0.00000000E+00  0.00000000E+00  0.00000000E+00
  0.00000000E+00  0.00000000E+00  0.00000000E+00
  0.00000000E+00  0.00000000E+00  0.00000000E+00
  0.00000000E+00  0.00000000E+00  0.00000000E+00
  0.00000000E+00  0.00000000E+00  0.00000000E+00
  0.00000000E+00  0.00000000E+00  0.00000000E+00
  0.00000000E+00  0.00000000E+00  0.00000000E+00
  0.00000000E+00  0.00000000E+00  0.00000000E+00
  0.00000000E+00  0.00000000E+00  0.00000000E+00
  0.00000000E+00  0.00000000E+00  0.00000000E+00
  0.00000000E+00  0.00000000E+00  0.00000000E+00
  0.00000000E+00  0.00000000E+00  0.00000000E+00
  0.00000000E+00  0.00000000E+00  0.00000000E+00
  0.00000000E+00  0.00000000E+00  0.00000000E+00
  0.00000000E+00  0.00000000E+00  0.00000000E+00
  0.00000000E+00  0.00000000E+00  0.00000000E+00
  0.00000000E+00  0.00000000E+00  0.00000000E+00
  0.00000000E+00  0.00000000E+00  0.00000000E+00
  0.00000000E+00  0.00000000E+00  0.00000000E+00
  0.00000000E+00  0.00000000E+00  0.00000000E+00
  0.00000000E+00  0.00000000E+00  0.00000000E+00
  0.00000000E+00  0.00000000E+00  0.00000000E+00
  0.00000000E+00  0.00000000E+00  0.00000000E+00
  0.00000000E+00  0.00000000E+00  0.00000000E+00
  0.00000000E+00  0.00000000E+00  0.00000000E+00
  0.00000000E+00  0.00000000E+00  0.00000000E+00
  0.00000000E+00  0.00000000E+00  0.00000000E+00
  0.00000000E+00  0.00000000E+00  0.00000000E+00
  0.00000000E+00  0.00000000E+00  0.00000000E+00
  0.00000000E+00  0.00000000E+00  0.00000000E+00
  0.00000000E+00  0.00000000E+00  0.00000000E+00
  0.00000000E+00  0.00000000E+00  0.00000000E+00
  0.00000000E+00  0.00000000E+00  0.00000000E+00
  0.00000000E+00  0.00000000E+00  0.00000000E+00
  0.00000000E+00  0.00000000E+00  0.00000000E+00
  0.00000000E+00  0.00000000E+00  0.00000000E+00
  0.00000000E+00  0.00000000E+00  0.00000000E+00
  0.00000000E+00  0.00000000E+00  0.00000000E+00
  0.00000000E+00  0.00000000E+00  0.00000000E+00
  0.00000000E+00  0.00000000E+00  0.00000000E+00
  0.00000000E+00  0.00000000E+00  0.00000000E+00
  0.00000000E+00  0.00000000E+00  0.00000000E+00
  0.00000000E+00  0.00000000E+00  0.00000000E+00
  0.00000000E+00  0.00000000E+00  0.00000000E+00
  0.00000000E+00  0.00000000E+00  0.00000000E+00
  0.00000000E+00  0.00000000E+00  0.00000000E+00
  0.00000000E+00  0.00000000E+00  0.00000000E+00
  0.00000000E+00  0.00000000E+00  0.00000000E+00
  0.00000000E+00  0.00000000E+00  0.00000000E+00
  0.00000000E+00  0.00000000E+00  0.00000000E+00
  0.00000000E+00  0.00000000E+00  0.00000000E+00
