H1 Ir24 O97                             
   1.00000000000000     
     8.8825717399999995    0.0000000000000000    0.0000000000000006
     0.0000000000000016   10.4413266599999996    0.0000000000000006
     0.0000000000000000    0.0000000000000000   33.7486279399999987
   H    Ir   O 
     1    24    97
Selective dynamics
Direct
  0.3771465143892848  0.2357006866404202  0.7859981635258559   T   T   T
  0.0000000000000000  0.2500000000000000  0.3873731500000019   F   F   F
  0.0000000000000000  0.7500000000000000  0.3873731500000019   F   F   F
  0.5000000000000000  0.2500000000000000  0.3873731500000019   F   F   F
  0.5000000000000000  0.7500000000000000  0.3873731500000019   F   F   F
  0.2500000000000000  0.2500000000000000  0.3040398099999990   F   F   F
  0.2500000000000000  0.7500000000000000  0.3040398099999990   F   F   F
  0.7500000000000000  0.2500000000000000  0.3040398099999990   F   F   F
  0.7500000000000000  0.7500000000000000  0.3040398099999990   F   F   F
 -0.0007099703000910  0.2486456392908202  0.5543562580269796   T   T   T
 -0.0004840207784491  0.7502844037373426  0.5538075693981706   T   T   T
  0.4990220338007966  0.2506894591408628  0.5534302236328518   T   T   T
  0.4998353127038285  0.7505893647173029  0.5539973882686751   T   T   T
  0.2500000000000000  0.2500000000000000  0.4707064799999969   F   F   F
  0.2500000000000000  0.7500000000000000  0.4707064799999969   F   F   F
  0.7500000000000000  0.2500000000000000  0.4707064799999969   F   F   F
  0.7500000000000000  0.7500000000000000  0.4707064799999969   F   F   F
  0.0051864347572282  0.2585409662353113  0.7212842826778771   T   T   T
  0.0021581340536622  0.7489879855275179  0.7241301946901532   T   T   T
  0.5220019508228545  0.2455471069219270  0.7240279439405155   T   T   T
  0.5037947998361673  0.7568635506728086  0.7277835347977250   T   T   T
  0.2574137817144180  0.2538354690596553  0.6378331152615268   T   T   T
  0.2499795996524719  0.7516402144607605  0.6375940793896345   T   T   T
  0.7467484443454772  0.2569614338716277  0.6368845751789196   T   T   T
  0.7495859296392581  0.7519668534528762  0.6376783109836043   T   T   T
  0.3743057900000011  0.1712332649999979  0.2658821799999984   F   F   F
  0.3743057900000011  0.6712332649999979  0.2658821799999984   F   F   F
  0.8743057900000011  0.1712332649999979  0.2658821799999984   F   F   F
  0.8743057900000011  0.6712332649999979  0.2658821799999984   F   F   F
  0.1106602850000016  0.1112853750000014  0.3945979200000025   F   F   F
  0.1106602850000016  0.6112853750000014  0.3945979200000025   F   F   F
  0.6106602850000016  0.1112853750000014  0.3945979200000025   F   F   F
  0.6106602850000016  0.6112853750000014  0.3945979200000025   F   F   F
  0.3606602850000016  0.3887146249999986  0.3112645799999996   F   F   F
  0.3606602850000016  0.8887146249999986  0.3112645799999996   F   F   F
  0.8606602850000016  0.3887146249999986  0.3112645799999996   F   F   F
  0.8606602850000016  0.8887146249999986  0.3112645799999996   F   F   F
  0.1243057900000011  0.3287667350000021  0.3492155100000005   F   F   F
  0.1243057900000011  0.8287667350000021  0.3492155100000005   F   F   F
  0.6243057900000011  0.3287667350000021  0.3492155100000005   F   F   F
  0.6243057900000011  0.8287667350000021  0.3492155100000005   F   F   F
  0.1256942099999989  0.3287667350000021  0.2658821799999984   F   F   F
  0.1256942099999989  0.8287667350000021  0.2658821799999984   F   F   F
  0.6256942099999989  0.3287667350000021  0.2658821799999984   F   F   F
  0.6256942099999989  0.8287667350000021  0.2658821799999984   F   F   F
  0.3893397149999984  0.3887146249999986  0.3945979200000025   F   F   F
  0.3893397149999984  0.8887146249999986  0.3945979200000025   F   F   F
  0.8893397149999984  0.3887146249999986  0.3945979200000025   F   F   F
  0.8893397149999984  0.8887146249999986  0.3945979200000025   F   F   F
  0.1393397149999984  0.1112853750000014  0.3112645799999996   F   F   F
  0.1393397149999984  0.6112853750000014  0.3112645799999996   F   F   F
  0.6393397149999984  0.1112853750000014  0.3112645799999996   F   F   F
  0.6393397149999984  0.6112853750000014  0.3112645799999996   F   F   F
  0.3756942099999989  0.1712332649999979  0.3492155100000005   F   F   F
  0.3756942099999989  0.6712332649999979  0.3492155100000005   F   F   F
  0.8756942099999989  0.1712332649999979  0.3492155100000005   F   F   F
  0.8756942099999989  0.6712332649999979  0.3492155100000005   F   F   F
  0.3743057900000011  0.1712332649999979  0.4325488400000026   F   F   F
  0.3743057900000011  0.6712332649999979  0.4325488400000026   F   F   F
  0.8743057900000011  0.1712332649999979  0.4325488400000026   F   F   F
  0.8743057900000011  0.6712332649999979  0.4325488400000026   F   F   F
  0.1122875768379587  0.1118683559682062  0.5621059864663376   T   T   T
  0.1085742497909604  0.6130111132096071  0.5634795910320711   T   T   T
  0.6109630435619252  0.1138366517907539  0.5622816629523869   T   T   T
  0.6093590963959594  0.6131537026238019  0.5633752052448423   T   T   T
  0.3606602850000016  0.3887146249999986  0.4779312499999975   F   F   F
  0.3606602850000016  0.8887146249999986  0.4779312499999975   F   F   F
  0.8606602850000016  0.3887146249999986  0.4779312499999975   F   F   F
  0.8606602850000016  0.8887146249999986  0.4779312499999975   F   F   F
  0.1261808793790420  0.3268050772865477  0.5164351919761251   T   T   T
  0.1257174065816461  0.8284600525138507  0.5165204542930336   T   T   T
  0.6246658329357799  0.3290619535070643  0.5160414835374268   T   T   T
  0.6253179840389933  0.8284841424074462  0.5165253071767167   T   T   T
  0.1256942099999989  0.3287667350000021  0.4325488400000026   F   F   F
  0.1256942099999989  0.8287667350000021  0.4325488400000026   F   F   F
  0.6256942099999989  0.3287667350000021  0.4325488400000026   F   F   F
  0.6256942099999989  0.8287667350000021  0.4325488400000026   F   F   F
  0.3863800791343132  0.3877089377002056  0.5612134344973787   T   T   T
  0.3902919550231942  0.8882561305161895  0.5630564612123498   T   T   T
  0.8963174584314677  0.3914754055413621  0.5616862017263676   T   T   T
  0.8909256848605989  0.8881640470930354  0.5630361113546650   T   T   T
  0.1393397149999984  0.1112853750000014  0.4779312499999975   F   F   F
  0.1393397149999984  0.6112853750000014  0.4779312499999975   F   F   F
  0.6393397149999984  0.1112853750000014  0.4779312499999975   F   F   F
  0.6393397149999984  0.6112853750000014  0.4779312499999975   F   F   F
  0.3756677825529233  0.1702330745608671  0.5158905342868610   T   T   T
  0.3747907218757697  0.6718732486082427  0.5165806708327633   T   T   T
  0.8741293684113712  0.1719303077155193  0.5164394045774132   T   T   T
  0.8742168775441786  0.6715131244224471  0.5164689271408646   T   T   T
  0.3776590403583702  0.1714735328522342  0.6006342473916354   T   T   T
  0.3777330531413499  0.6710898456496265  0.6022348988438814   T   T   T
  0.8709850466647233  0.1740235580228052  0.5988774792983881   T   T   T
  0.8777378025630501  0.6710469358721635  0.6026915117548524   T   T   T
  0.0946973019340969  0.1492937743479902  0.7522871822449493   T   T   T
  0.1053986334140745  0.6392331204680124  0.7521537642732936   T   T   T
  0.6694101380952648  0.1483013625783245  0.7406821854873331   T   T   T
  0.6161361354364042  0.6587570697100554  0.7572432337319542   T   T   T
  0.3673991629127211  0.3903461221399972  0.6469528474984988   T   T   T
  0.3642544459136907  0.8809838675137255  0.6513405464618980   T   T   T
  0.8710439329227500  0.3860596535546481  0.6451242464542565   T   T   T
  0.8585783286696199  0.8849147593701940  0.6515323645747275   T   T   T
  0.1429861183107954  0.3390019698171898  0.6908933399902363   T   T   T
  0.1282886963757298  0.8346009298879908  0.6920796946461226   T   T   T
  0.6361960883950473  0.3324263617062609  0.6843994040835939   T   T   T
  0.6255207837848090  0.8400907911535296  0.6944581682664198   T   T   T
  0.1225110040962317  0.3272349883948754  0.6024669903032045   T   T   T
  0.1188439027804848  0.8308119442145683  0.6031540803763452   T   T   T
  0.6189497077242774  0.3338748185235221  0.6008475250975284   T   T   T
  0.6218432045672641  0.8318397883143144  0.6022224138458677   T   T   T
  0.4943420683080079  0.3944650481087463  0.7479452780567308   T   T   T
  0.3924393540431546  0.8631506523330735  0.7546650671787414   T   T   T
  0.9035237309770401  0.3748755449876287  0.7470084111188692   T   T   T
  0.9003422804455522  0.8570111637460177  0.7530882746105256   T   T   T
  0.1518952289233992  0.1191514007262773  0.6525441180693797   T   T   T
  0.1467834053316703  0.6165881501798787  0.6524446908711645   T   T   T
  0.6509450439082924  0.1137401178868777  0.6478449933415784   T   T   T
  0.6364262400978808  0.6219585490958007  0.6516326402359551   T   T   T
  0.3950724526031101  0.1763478112250079  0.6876800772978910   T   T   T
  0.3828898253665821  0.6654252622947227  0.6966924990140960   T   T   T
  0.8853452213430270  0.1738020112228287  0.6876147633325539   T   T   T
  0.8739022108020432  0.6663711923095306  0.6920339330306191   T   T   T
  0.3845725215484413  0.1732764572617934  0.7644475955368912   T   T   T
 
  0.00000000E+00  0.00000000E+00  0.00000000E+00
  0.00000000E+00  0.00000000E+00  0.00000000E+00
  0.00000000E+00  0.00000000E+00  0.00000000E+00
  0.00000000E+00  0.00000000E+00  0.00000000E+00
  0.00000000E+00  0.00000000E+00  0.00000000E+00
  0.00000000E+00  0.00000000E+00  0.00000000E+00
  0.00000000E+00  0.00000000E+00  0.00000000E+00
  0.00000000E+00  0.00000000E+00  0.00000000E+00
  0.00000000E+00  0.00000000E+00  0.00000000E+00
  0.00000000E+00  0.00000000E+00  0.00000000E+00
  0.00000000E+00  0.00000000E+00  0.00000000E+00
  0.00000000E+00  0.00000000E+00  0.00000000E+00
  0.00000000E+00  0.00000000E+00  0.00000000E+00
  0.00000000E+00  0.00000000E+00  0.00000000E+00
  0.00000000E+00  0.00000000E+00  0.00000000E+00
  0.00000000E+00  0.00000000E+00  0.00000000E+00
  0.00000000E+00  0.00000000E+00  0.00000000E+00
  0.00000000E+00  0.00000000E+00  0.00000000E+00
  0.00000000E+00  0.00000000E+00  0.00000000E+00
  0.00000000E+00  0.00000000E+00  0.00000000E+00
  0.00000000E+00  0.00000000E+00  0.00000000E+00
  0.00000000E+00  0.00000000E+00  0.00000000E+00
  0.00000000E+00  0.00000000E+00  0.00000000E+00
  0.00000000E+00  0.00000000E+00  0.00000000E+00
  0.00000000E+00  0.00000000E+00  0.00000000E+00
  0.00000000E+00  0.00000000E+00  0.00000000E+00
  0.00000000E+00  0.00000000E+00  0.00000000E+00
  0.00000000E+00  0.00000000E+00  0.00000000E+00
  0.00000000E+00  0.00000000E+00  0.00000000E+00
  0.00000000E+00  0.00000000E+00  0.00000000E+00
  0.00000000E+00  0.00000000E+00  0.00000000E+00
  0.00000000E+00  0.00000000E+00  0.00000000E+00
  0.00000000E+00  0.00000000E+00  0.00000000E+00
  0.00000000E+00  0.00000000E+00  0.00000000E+00
  0.00000000E+00  0.00000000E+00  0.00000000E+00
  0.00000000E+00  0.00000000E+00  0.00000000E+00
  0.00000000E+00  0.00000000E+00  0.00000000E+00
  0.00000000E+00  0.00000000E+00  0.00000000E+00
  0.00000000E+00  0.00000000E+00  0.00000000E+00
  0.00000000E+00  0.00000000E+00  0.00000000E+00
  0.00000000E+00  0.00000000E+00  0.00000000E+00
  0.00000000E+00  0.00000000E+00  0.00000000E+00
  0.00000000E+00  0.00000000E+00  0.00000000E+00
  0.00000000E+00  0.00000000E+00  0.00000000E+00
  0.00000000E+00  0.00000000E+00  0.00000000E+00
  0.00000000E+00  0.00000000E+00  0.00000000E+00
  0.00000000E+00  0.00000000E+00  0.00000000E+00
  0.00000000E+00  0.00000000E+00  0.00000000E+00
  0.00000000E+00  0.00000000E+00  0.00000000E+00
  0.00000000E+00  0.00000000E+00  0.00000000E+00
  0.00000000E+00  0.00000000E+00  0.00000000E+00
  0.00000000E+00  0.00000000E+00  0.00000000E+00
  0.00000000E+00  0.00000000E+00  0.00000000E+00
  0.00000000E+00  0.00000000E+00  0.00000000E+00
  0.00000000E+00  0.00000000E+00  0.00000000E+00
  0.00000000E+00  0.00000000E+00  0.00000000E+00
  0.00000000E+00  0.00000000E+00  0.00000000E+00
  0.00000000E+00  0.00000000E+00  0.00000000E+00
  0.00000000E+00  0.00000000E+00  0.00000000E+00
  0.00000000E+00  0.00000000E+00  0.00000000E+00
  0.00000000E+00  0.00000000E+00  0.00000000E+00
  0.00000000E+00  0.00000000E+00  0.00000000E+00
  0.00000000E+00  0.00000000E+00  0.00000000E+00
  0.00000000E+00  0.00000000E+00  0.00000000E+00
  0.00000000E+00  0.00000000E+00  0.00000000E+00
  0.00000000E+00  0.00000000E+00  0.00000000E+00
  0.00000000E+00  0.00000000E+00  0.00000000E+00
  0.00000000E+00  0.00000000E+00  0.00000000E+00
  0.00000000E+00  0.00000000E+00  0.00000000E+00
  0.00000000E+00  0.00000000E+00  0.00000000E+00
  0.00000000E+00  0.00000000E+00  0.00000000E+00
  0.00000000E+00  0.00000000E+00  0.00000000E+00
  0.00000000E+00  0.00000000E+00  0.00000000E+00
  0.00000000E+00  0.00000000E+00  0.00000000E+00
  0.00000000E+00  0.00000000E+00  0.00000000E+00
  0.00000000E+00  0.00000000E+00  0.00000000E+00
  0.00000000E+00  0.00000000E+00  0.00000000E+00
  0.00000000E+00  0.00000000E+00  0.00000000E+00
  0.00000000E+00  0.00000000E+00  0.00000000E+00
  0.00000000E+00  0.00000000E+00  0.00000000E+00
  0.00000000E+00  0.00000000E+00  0.00000000E+00
  0.00000000E+00  0.00000000E+00  0.00000000E+00
  0.00000000E+00  0.00000000E+00  0.00000000E+00
  0.00000000E+00  0.00000000E+00  0.00000000E+00
  0.00000000E+00  0.00000000E+00  0.00000000E+00
  0.00000000E+00  0.00000000E+00  0.00000000E+00
  0.00000000E+00  0.00000000E+00  0.00000000E+00
  0.00000000E+00  0.00000000E+00  0.00000000E+00
  0.00000000E+00  0.00000000E+00  0.00000000E+00
  0.00000000E+00  0.00000000E+00  0.00000000E+00
  0.00000000E+00  0.00000000E+00  0.00000000E+00
  0.00000000E+00  0.00000000E+00  0.00000000E+00
  0.00000000E+00  0.00000000E+00  0.00000000E+00
  0.00000000E+00  0.00000000E+00  0.00000000E+00
  0.00000000E+00  0.00000000E+00  0.00000000E+00
  0.00000000E+00  0.00000000E+00  0.00000000E+00
  0.00000000E+00  0.00000000E+00  0.00000000E+00
  0.00000000E+00  0.00000000E+00  0.00000000E+00
  0.00000000E+00  0.00000000E+00  0.00000000E+00
  0.00000000E+00  0.00000000E+00  0.00000000E+00
  0.00000000E+00  0.00000000E+00  0.00000000E+00
  0.00000000E+00  0.00000000E+00  0.00000000E+00
  0.00000000E+00  0.00000000E+00  0.00000000E+00
  0.00000000E+00  0.00000000E+00  0.00000000E+00
  0.00000000E+00  0.00000000E+00  0.00000000E+00
  0.00000000E+00  0.00000000E+00  0.00000000E+00
  0.00000000E+00  0.00000000E+00  0.00000000E+00
  0.00000000E+00  0.00000000E+00  0.00000000E+00
  0.00000000E+00  0.00000000E+00  0.00000000E+00
  0.00000000E+00  0.00000000E+00  0.00000000E+00
  0.00000000E+00  0.00000000E+00  0.00000000E+00
  0.00000000E+00  0.00000000E+00  0.00000000E+00
  0.00000000E+00  0.00000000E+00  0.00000000E+00
  0.00000000E+00  0.00000000E+00  0.00000000E+00
  0.00000000E+00  0.00000000E+00  0.00000000E+00
  0.00000000E+00  0.00000000E+00  0.00000000E+00
  0.00000000E+00  0.00000000E+00  0.00000000E+00
  0.00000000E+00  0.00000000E+00  0.00000000E+00
  0.00000000E+00  0.00000000E+00  0.00000000E+00
  0.00000000E+00  0.00000000E+00  0.00000000E+00
  0.00000000E+00  0.00000000E+00  0.00000000E+00
  0.00000000E+00  0.00000000E+00  0.00000000E+00
