Ir24 O96                                
   1.00000000000000     
     8.8825717399999995    0.0000000000000000    0.0000000000000006
     0.0000000000000016   10.4413266599999996    0.0000000000000006
     0.0000000000000000    0.0000000000000000   33.7486279399999987
   Ir   O 
    24    96
Selective dynamics
Direct
  0.0000000000000000  0.2500000000000000  0.3873731500000019   F   F   F
  0.0000000000000000  0.7500000000000000  0.3873731500000019   F   F   F
  0.5000000000000000  0.2500000000000000  0.3873731500000019   F   F   F
  0.5000000000000000  0.7500000000000000  0.3873731500000019   F   F   F
  0.2500000000000000  0.2500000000000000  0.3040398099999990   F   F   F
  0.2500000000000000  0.7500000000000000  0.3040398099999990   F   F   F
  0.7500000000000000  0.2500000000000000  0.3040398099999990   F   F   F
  0.7500000000000000  0.7500000000000000  0.3040398099999990   F   F   F
 -0.0000611439006005  0.2498678186138494  0.5519034507052135   T   T   T
 -0.0000558796632101  0.7501803951078891  0.5519197564992471   T   T   T
  0.4999930254639368  0.2500955010695469  0.5518609023823073   T   T   T
  0.4997720681015944  0.7502636389236675  0.5519556110863312   T   T   T
  0.2500000000000000  0.2500000000000000  0.4707064799999969   F   F   F
  0.2500000000000000  0.7500000000000000  0.4707064799999969   F   F   F
  0.7500000000000000  0.2500000000000000  0.4707064799999969   F   F   F
  0.7500000000000000  0.7500000000000000  0.4707064799999969   F   F   F
  0.0002120926886188  0.2498578431392254  0.7135212717426754   T   T   T
 -0.0000968735368383  0.7500257523497561  0.7135315082988536   T   T   T
  0.5000132375605612  0.2500339781104327  0.7135658314918748   T   T   T
  0.4999221568020845  0.7499878268592026  0.7134865406836919   T   T   T
  0.2498964199931309  0.2497722562882390  0.6327037455901465   T   T   T
  0.2501172537004810  0.7502484509083087  0.6326736580811728   T   T   T
  0.7498467149433047  0.2497401243466922  0.6328036274367764   T   T   T
  0.7499656530116092  0.7502831291178742  0.6326988364168493   T   T   T
  0.3743057900000011  0.1712332649999979  0.2658821799999984   F   F   F
  0.3743057900000011  0.6712332649999979  0.2658821799999984   F   F   F
  0.8743057900000011  0.1712332649999979  0.2658821799999984   F   F   F
  0.8743057900000011  0.6712332649999979  0.2658821799999984   F   F   F
  0.1106602850000016  0.1112853750000014  0.3945979200000025   F   F   F
  0.1106602850000016  0.6112853750000014  0.3945979200000025   F   F   F
  0.6106602850000016  0.1112853750000014  0.3945979200000025   F   F   F
  0.6106602850000016  0.6112853750000014  0.3945979200000025   F   F   F
  0.3606602850000016  0.3887146249999986  0.3112645799999996   F   F   F
  0.3606602850000016  0.8887146249999986  0.3112645799999996   F   F   F
  0.8606602850000016  0.3887146249999986  0.3112645799999996   F   F   F
  0.8606602850000016  0.8887146249999986  0.3112645799999996   F   F   F
  0.1243057900000011  0.3287667350000021  0.3492155100000005   F   F   F
  0.1243057900000011  0.8287667350000021  0.3492155100000005   F   F   F
  0.6243057900000011  0.3287667350000021  0.3492155100000005   F   F   F
  0.6243057900000011  0.8287667350000021  0.3492155100000005   F   F   F
  0.1256942099999989  0.3287667350000021  0.2658821799999984   F   F   F
  0.1256942099999989  0.8287667350000021  0.2658821799999984   F   F   F
  0.6256942099999989  0.3287667350000021  0.2658821799999984   F   F   F
  0.6256942099999989  0.8287667350000021  0.2658821799999984   F   F   F
  0.3893397149999984  0.3887146249999986  0.3945979200000025   F   F   F
  0.3893397149999984  0.8887146249999986  0.3945979200000025   F   F   F
  0.8893397149999984  0.3887146249999986  0.3945979200000025   F   F   F
  0.8893397149999984  0.8887146249999986  0.3945979200000025   F   F   F
  0.1393397149999984  0.1112853750000014  0.3112645799999996   F   F   F
  0.1393397149999984  0.6112853750000014  0.3112645799999996   F   F   F
  0.6393397149999984  0.1112853750000014  0.3112645799999996   F   F   F
  0.6393397149999984  0.6112853750000014  0.3112645799999996   F   F   F
  0.3756942099999989  0.1712332649999979  0.3492155100000005   F   F   F
  0.3756942099999989  0.6712332649999979  0.3492155100000005   F   F   F
  0.8756942099999989  0.1712332649999979  0.3492155100000005   F   F   F
  0.8756942099999989  0.6712332649999979  0.3492155100000005   F   F   F
  0.3743057900000011  0.1712332649999979  0.4325488400000026   F   F   F
  0.3743057900000011  0.6712332649999979  0.4325488400000026   F   F   F
  0.8743057900000011  0.1712332649999979  0.4325488400000026   F   F   F
  0.8743057900000011  0.6712332649999979  0.4325488400000026   F   F   F
  0.1137241307108380  0.1134833384505447  0.5593733840672335   T   T   T
  0.1135176372417324  0.6136399704924910  0.5594723602004837   T   T   T
  0.6133424533951164  0.1135998328359254  0.5594670663386622   T   T   T
  0.6136129663176988  0.6138193787045971  0.5594568533610841   T   T   T
  0.3606602850000016  0.3887146249999986  0.4779312499999975   F   F   F
  0.3606602850000016  0.8887146249999986  0.4779312499999975   F   F   F
  0.8606602850000016  0.3887146249999986  0.4779312499999975   F   F   F
  0.8606602850000016  0.8887146249999986  0.4779312499999975   F   F   F
  0.1245621947531630  0.3325061363864972  0.5146271405725271   T   T   T
  0.1246369924704437  0.8326131501002551  0.5146869859169655   T   T   T
  0.6254460334139130  0.3324877288653739  0.5147469765049509   T   T   T
  0.6246909085203127  0.8322404021356101  0.5147202340245228   T   T   T
  0.1256942099999989  0.3287667350000021  0.4325488400000026   F   F   F
  0.1256942099999989  0.8287667350000021  0.4325488400000026   F   F   F
  0.6256942099999989  0.3287667350000021  0.4325488400000026   F   F   F
  0.6256942099999989  0.8287667350000021  0.4325488400000026   F   F   F
  0.3863084418374235  0.3862485741783142  0.5594161172838423   T   T   T
  0.3865078473505679  0.8868046087262432  0.5594168306351209   T   T   T
  0.8865375046949011  0.3861284696420589  0.5594992279791651   T   T   T
  0.8865176357188846  0.8865957311038311  0.5593941487197780   T   T   T
  0.1393397149999984  0.1112853750000014  0.4779312499999975   F   F   F
  0.1393397149999984  0.6112853750000014  0.4779312499999975   F   F   F
  0.6393397149999984  0.1112853750000014  0.4779312499999975   F   F   F
  0.6393397149999984  0.6112853750000014  0.4779312499999975   F   F   F
  0.3750489701065758  0.1673867685901885  0.5145874358141764   T   T   T
  0.3755899242662138  0.6675051832671972  0.5147452635668824   T   T   T
  0.8749301027263391  0.1674797988155688  0.5147528654086327   T   T   T
  0.8751351788172733  0.6675489042984764  0.5147582239759285   T   T   T
  0.3771093391943262  0.1647398270029022  0.5977071312553719   T   T   T
  0.3771111111067316  0.6649919055974073  0.5976622766875085   T   T   T
  0.8771133139622149  0.1648175952287866  0.5977010241281777   T   T   T
  0.8768312117191799  0.6652701025873698  0.5976696314411735   T   T   T
  0.1002634205261904  0.1398348710597714  0.7421671642149416   T   T   T
  0.1002231414101196  0.6399280148485184  0.7421867781181223   T   T   T
  0.6002100584428658  0.1396168526465006  0.7422071466386322   T   T   T
  0.6002645607602416  0.6398746418214627  0.7421535891918271   T   T   T
  0.3706335957433762  0.3795609743110316  0.6443156781320800   T   T   T
  0.3703713972384380  0.8798444133254498  0.6443545738090841   T   T   T
  0.8705164086069782  0.3796729080587380  0.6443362176643330   T   T   T
  0.8706165541393518  0.8798345395321490  0.6443054889231344   T   T   T
  0.1328148626023214  0.3375337640754583  0.6838836092803875   T   T   T
  0.1328752667346620  0.8378452372354588  0.6838608044656416   T   T   T
  0.6326892603807368  0.3374056291532299  0.6838374438484263   T   T   T
  0.6328885501350641  0.8379794924128530  0.6838645749293386   T   T   T
  0.1229939830782279  0.3350492575500866  0.5977180483849216   T   T   T
  0.1228106491110626  0.8353051632164104  0.5976660200118873   T   T   T
  0.6228474666790889  0.3348413839365698  0.5977343155059280   T   T   T
  0.6229408350204489  0.8352506972992563  0.5976004770725063   T   T   T
  0.3993262117166483  0.3601755444792901  0.7421192928529721   T   T   T
  0.3997801909283225  0.8601579172264447  0.7422122871661689   T   T   T
  0.8998327113210427  0.3604361449499788  0.7422204744547652   T   T   T
  0.8996556184192982  0.8602738670725171  0.7422177235680293   T   T   T
  0.1293652757770557  0.1204068707872356  0.6443528183742672   T   T   T
  0.1293660777936962  0.6206610560173951  0.6443015334309138   T   T   T
  0.6295385177843819  0.1199460198817021  0.6442895980712319   T   T   T
  0.6293057625360180  0.6206721722576853  0.6443082013556815   T   T   T
  0.3668545145115939  0.1622607782154084  0.6838843616225312   T   T   T
  0.3672156102171316  0.6624740267020918  0.6838426476136461   T   T   T
  0.8671421769629898  0.1621388193660017  0.6838386109610519   T   T   T
  0.8671941324762821  0.6625114110128136  0.6838460921530235   T   T   T
 
  0.00000000E+00  0.00000000E+00  0.00000000E+00
  0.00000000E+00  0.00000000E+00  0.00000000E+00
  0.00000000E+00  0.00000000E+00  0.00000000E+00
  0.00000000E+00  0.00000000E+00  0.00000000E+00
  0.00000000E+00  0.00000000E+00  0.00000000E+00
  0.00000000E+00  0.00000000E+00  0.00000000E+00
  0.00000000E+00  0.00000000E+00  0.00000000E+00
  0.00000000E+00  0.00000000E+00  0.00000000E+00
  0.00000000E+00  0.00000000E+00  0.00000000E+00
  0.00000000E+00  0.00000000E+00  0.00000000E+00
  0.00000000E+00  0.00000000E+00  0.00000000E+00
  0.00000000E+00  0.00000000E+00  0.00000000E+00
  0.00000000E+00  0.00000000E+00  0.00000000E+00
  0.00000000E+00  0.00000000E+00  0.00000000E+00
  0.00000000E+00  0.00000000E+00  0.00000000E+00
  0.00000000E+00  0.00000000E+00  0.00000000E+00
  0.00000000E+00  0.00000000E+00  0.00000000E+00
  0.00000000E+00  0.00000000E+00  0.00000000E+00
  0.00000000E+00  0.00000000E+00  0.00000000E+00
  0.00000000E+00  0.00000000E+00  0.00000000E+00
  0.00000000E+00  0.00000000E+00  0.00000000E+00
  0.00000000E+00  0.00000000E+00  0.00000000E+00
  0.00000000E+00  0.00000000E+00  0.00000000E+00
  0.00000000E+00  0.00000000E+00  0.00000000E+00
  0.00000000E+00  0.00000000E+00  0.00000000E+00
  0.00000000E+00  0.00000000E+00  0.00000000E+00
  0.00000000E+00  0.00000000E+00  0.00000000E+00
  0.00000000E+00  0.00000000E+00  0.00000000E+00
  0.00000000E+00  0.00000000E+00  0.00000000E+00
  0.00000000E+00  0.00000000E+00  0.00000000E+00
  0.00000000E+00  0.00000000E+00  0.00000000E+00
  0.00000000E+00  0.00000000E+00  0.00000000E+00
  0.00000000E+00  0.00000000E+00  0.00000000E+00
  0.00000000E+00  0.00000000E+00  0.00000000E+00
  0.00000000E+00  0.00000000E+00  0.00000000E+00
  0.00000000E+00  0.00000000E+00  0.00000000E+00
  0.00000000E+00  0.00000000E+00  0.00000000E+00
  0.00000000E+00  0.00000000E+00  0.00000000E+00
  0.00000000E+00  0.00000000E+00  0.00000000E+00
  0.00000000E+00  0.00000000E+00  0.00000000E+00
  0.00000000E+00  0.00000000E+00  0.00000000E+00
  0.00000000E+00  0.00000000E+00  0.00000000E+00
  0.00000000E+00  0.00000000E+00  0.00000000E+00
  0.00000000E+00  0.00000000E+00  0.00000000E+00
  0.00000000E+00  0.00000000E+00  0.00000000E+00
  0.00000000E+00  0.00000000E+00  0.00000000E+00
  0.00000000E+00  0.00000000E+00  0.00000000E+00
  0.00000000E+00  0.00000000E+00  0.00000000E+00
  0.00000000E+00  0.00000000E+00  0.00000000E+00
  0.00000000E+00  0.00000000E+00  0.00000000E+00
  0.00000000E+00  0.00000000E+00  0.00000000E+00
  0.00000000E+00  0.00000000E+00  0.00000000E+00
  0.00000000E+00  0.00000000E+00  0.00000000E+00
  0.00000000E+00  0.00000000E+00  0.00000000E+00
  0.00000000E+00  0.00000000E+00  0.00000000E+00
  0.00000000E+00  0.00000000E+00  0.00000000E+00
  0.00000000E+00  0.00000000E+00  0.00000000E+00
  0.00000000E+00  0.00000000E+00  0.00000000E+00
  0.00000000E+00  0.00000000E+00  0.00000000E+00
  0.00000000E+00  0.00000000E+00  0.00000000E+00
  0.00000000E+00  0.00000000E+00  0.00000000E+00
  0.00000000E+00  0.00000000E+00  0.00000000E+00
  0.00000000E+00  0.00000000E+00  0.00000000E+00
  0.00000000E+00  0.00000000E+00  0.00000000E+00
  0.00000000E+00  0.00000000E+00  0.00000000E+00
  0.00000000E+00  0.00000000E+00  0.00000000E+00
  0.00000000E+00  0.00000000E+00  0.00000000E+00
  0.00000000E+00  0.00000000E+00  0.00000000E+00
  0.00000000E+00  0.00000000E+00  0.00000000E+00
  0.00000000E+00  0.00000000E+00  0.00000000E+00
  0.00000000E+00  0.00000000E+00  0.00000000E+00
  0.00000000E+00  0.00000000E+00  0.00000000E+00
  0.00000000E+00  0.00000000E+00  0.00000000E+00
  0.00000000E+00  0.00000000E+00  0.00000000E+00
  0.00000000E+00  0.00000000E+00  0.00000000E+00
  0.00000000E+00  0.00000000E+00  0.00000000E+00
  0.00000000E+00  0.00000000E+00  0.00000000E+00
  0.00000000E+00  0.00000000E+00  0.00000000E+00
  0.00000000E+00  0.00000000E+00  0.00000000E+00
  0.00000000E+00  0.00000000E+00  0.00000000E+00
  0.00000000E+00  0.00000000E+00  0.00000000E+00
  0.00000000E+00  0.00000000E+00  0.00000000E+00
  0.00000000E+00  0.00000000E+00  0.00000000E+00
  0.00000000E+00  0.00000000E+00  0.00000000E+00
  0.00000000E+00  0.00000000E+00  0.00000000E+00
  0.00000000E+00  0.00000000E+00  0.00000000E+00
  0.00000000E+00  0.00000000E+00  0.00000000E+00
  0.00000000E+00  0.00000000E+00  0.00000000E+00
  0.00000000E+00  0.00000000E+00  0.00000000E+00
  0.00000000E+00  0.00000000E+00  0.00000000E+00
  0.00000000E+00  0.00000000E+00  0.00000000E+00
  0.00000000E+00  0.00000000E+00  0.00000000E+00
  0.00000000E+00  0.00000000E+00  0.00000000E+00
  0.00000000E+00  0.00000000E+00  0.00000000E+00
  0.00000000E+00  0.00000000E+00  0.00000000E+00
  0.00000000E+00  0.00000000E+00  0.00000000E+00
  0.00000000E+00  0.00000000E+00  0.00000000E+00
  0.00000000E+00  0.00000000E+00  0.00000000E+00
  0.00000000E+00  0.00000000E+00  0.00000000E+00
  0.00000000E+00  0.00000000E+00  0.00000000E+00
  0.00000000E+00  0.00000000E+00  0.00000000E+00
  0.00000000E+00  0.00000000E+00  0.00000000E+00
  0.00000000E+00  0.00000000E+00  0.00000000E+00
  0.00000000E+00  0.00000000E+00  0.00000000E+00
  0.00000000E+00  0.00000000E+00  0.00000000E+00
  0.00000000E+00  0.00000000E+00  0.00000000E+00
  0.00000000E+00  0.00000000E+00  0.00000000E+00
  0.00000000E+00  0.00000000E+00  0.00000000E+00
  0.00000000E+00  0.00000000E+00  0.00000000E+00
  0.00000000E+00  0.00000000E+00  0.00000000E+00
  0.00000000E+00  0.00000000E+00  0.00000000E+00
  0.00000000E+00  0.00000000E+00  0.00000000E+00
  0.00000000E+00  0.00000000E+00  0.00000000E+00
  0.00000000E+00  0.00000000E+00  0.00000000E+00
  0.00000000E+00  0.00000000E+00  0.00000000E+00
  0.00000000E+00  0.00000000E+00  0.00000000E+00
  0.00000000E+00  0.00000000E+00  0.00000000E+00
  0.00000000E+00  0.00000000E+00  0.00000000E+00
  0.00000000E+00  0.00000000E+00  0.00000000E+00
  0.00000000E+00  0.00000000E+00  0.00000000E+00
