Ir16 O32                                
   1.00000000000000     
     6.3790139999999997    0.0000000000000000    0.0000000000000004
     0.0000000000000010    6.4275143699999999    0.0000000000000004
     0.0000000000000000    0.0000000000000000   32.1375718700000021
   Ir   O 
    16    32
Selective dynamics
Direct
  0.2500000000000000  0.5000000000000000  0.5494083543975128   T   T   T
  0.7500000000000000  0.5000000000000000  0.5494083543975128   T   T   T
  0.2500000000000000 -0.0000000000000000  0.6505636249281760   T   T   T
  0.7500000000000000 -0.0000000000000000  0.6505636249281760   T   T   T
 -0.0000000000000000  0.5000000000000000  0.6476927053278627   T   T   T
  0.5000000000000000  0.5000000000000000  0.6476927053278627   T   T   T
 -0.0000000000000000 -0.0000000000000000  0.5502867749080335   T   T   T
  0.5000000000000000 -0.0000000000000000  0.5502867749080335   T   T   T
  0.2500000000000000  0.5000000000000000  0.3500000000000014   F   F   F
  0.7500000000000000  0.5000000000000000  0.3500000000000014   F   F   F
  0.2500000000000000  0.0000000000000000  0.4500000000000028   F   F   F
  0.7500000000000000  0.0000000000000000  0.4500000000000028   F   F   F
  0.0000000000000000  0.5000000000000000  0.4500000000000028   F   F   F
  0.5000000000000000  0.5000000000000000  0.4500000000000028   F   F   F
  0.0000000000000000  0.0000000000000000  0.3500000000000014   F   F   F
  0.5000000000000000  0.0000000000000000  0.3500000000000014   F   F   F
 -0.0000000000000000  0.5000000000000000  0.5872024113888754   T   T   T
  0.5000000000000000  0.5000000000000000  0.5872024113888754   T   T   T
 -0.0000000000000000 -0.0000000000000000  0.6872030235591144   T   T   T
  0.5000000000000000 -0.0000000000000000  0.6872030235591144   T   T   T
  0.2500000000000000  0.8084994354457380  0.5501521291949908   T   T   T
  0.7500000000000000  0.8084994354457380  0.5501521291949908   T   T   T
  0.2500000000000000  0.3102751558602710  0.6519961685267552   T   T   T
  0.7500000000000000  0.3102751558602710  0.6519961685267552   T   T   T
  0.0000000000000000  0.5000000000000000  0.5111127382704327   T   T   T
  0.5000000000000000  0.5000000000000000  0.5111127382704327   T   T   T
 -0.0000000000000000 -0.0000000000000000  0.6117971751604203   T   T   T
  0.5000000000000000 -0.0000000000000000  0.6117971751604203   T   T   T
  0.2500000000000000  0.1915005645542620  0.5501521291949908   T   T   T
  0.7500000000000000  0.1915005645542620  0.5501521291949908   T   T   T
  0.2500000000000000  0.6897248441397290  0.6519961685267552   T   T   T
  0.7500000000000000  0.6897248441397290  0.6519961685267552   T   T   T
  0.0000000000000000  0.5000000000000000  0.3883292000000012   F   F   F
  0.5000000000000000  0.5000000000000000  0.3883292000000012   F   F   F
  0.0000000000000000  0.0000000000000000  0.4883292000000026   F   F   F
  0.5000000000000000  0.0000000000000000  0.4883292000000026   F   F   F
  0.2500000000000000  0.8083540000000013  0.3500000000000014   F   F   F
  0.7500000000000000  0.8083540000000013  0.3500000000000014   F   F   F
  0.2500000000000000  0.3083540000000013  0.4500000000000028   F   F   F
  0.7500000000000000  0.3083540000000013  0.4500000000000028   F   F   F
  0.0000000000000000  0.5000000000000000  0.3116708000000017   F   F   F
  0.5000000000000000  0.5000000000000000  0.3116708000000017   F   F   F
  0.0000000000000000  0.0000000000000000  0.4116708000000031   F   F   F
  0.5000000000000000  0.0000000000000000  0.4116708000000031   F   F   F
  0.2500000000000000  0.1916459999999987  0.3500000000000014   F   F   F
  0.7500000000000000  0.1916459999999987  0.3500000000000014   F   F   F
  0.2500000000000000  0.6916459999999987  0.4500000000000028   F   F   F
  0.7500000000000000  0.6916459999999987  0.4500000000000028   F   F   F
 
  0.00000000E+00  0.00000000E+00  0.00000000E+00
  0.00000000E+00  0.00000000E+00  0.00000000E+00
  0.00000000E+00  0.00000000E+00  0.00000000E+00
  0.00000000E+00  0.00000000E+00  0.00000000E+00
  0.00000000E+00  0.00000000E+00  0.00000000E+00
  0.00000000E+00  0.00000000E+00  0.00000000E+00
  0.00000000E+00  0.00000000E+00  0.00000000E+00
  0.00000000E+00  0.00000000E+00  0.00000000E+00
  0.00000000E+00  0.00000000E+00  0.00000000E+00
  0.00000000E+00  0.00000000E+00  0.00000000E+00
  0.00000000E+00  0.00000000E+00  0.00000000E+00
  0.00000000E+00  0.00000000E+00  0.00000000E+00
  0.00000000E+00  0.00000000E+00  0.00000000E+00
  0.00000000E+00  0.00000000E+00  0.00000000E+00
  0.00000000E+00  0.00000000E+00  0.00000000E+00
  0.00000000E+00  0.00000000E+00  0.00000000E+00
  0.00000000E+00  0.00000000E+00  0.00000000E+00
  0.00000000E+00  0.00000000E+00  0.00000000E+00
  0.00000000E+00  0.00000000E+00  0.00000000E+00
  0.00000000E+00  0.00000000E+00  0.00000000E+00
  0.00000000E+00  0.00000000E+00  0.00000000E+00
  0.00000000E+00  0.00000000E+00  0.00000000E+00
  0.00000000E+00  0.00000000E+00  0.00000000E+00
  0.00000000E+00  0.00000000E+00  0.00000000E+00
  0.00000000E+00  0.00000000E+00  0.00000000E+00
  0.00000000E+00  0.00000000E+00  0.00000000E+00
  0.00000000E+00  0.00000000E+00  0.00000000E+00
  0.00000000E+00  0.00000000E+00  0.00000000E+00
  0.00000000E+00  0.00000000E+00  0.00000000E+00
  0.00000000E+00  0.00000000E+00  0.00000000E+00
  0.00000000E+00  0.00000000E+00  0.00000000E+00
  0.00000000E+00  0.00000000E+00  0.00000000E+00
  0.00000000E+00  0.00000000E+00  0.00000000E+00
  0.00000000E+00  0.00000000E+00  0.00000000E+00
  0.00000000E+00  0.00000000E+00  0.00000000E+00
  0.00000000E+00  0.00000000E+00  0.00000000E+00
  0.00000000E+00  0.00000000E+00  0.00000000E+00
  0.00000000E+00  0.00000000E+00  0.00000000E+00
  0.00000000E+00  0.00000000E+00  0.00000000E+00
  0.00000000E+00  0.00000000E+00  0.00000000E+00
  0.00000000E+00  0.00000000E+00  0.00000000E+00
  0.00000000E+00  0.00000000E+00  0.00000000E+00
  0.00000000E+00  0.00000000E+00  0.00000000E+00
  0.00000000E+00  0.00000000E+00  0.00000000E+00
  0.00000000E+00  0.00000000E+00  0.00000000E+00
  0.00000000E+00  0.00000000E+00  0.00000000E+00
  0.00000000E+00  0.00000000E+00  0.00000000E+00
  0.00000000E+00  0.00000000E+00  0.00000000E+00
