Ir20 O40                                
   1.00000000000000     
     6.3734181999999997    0.0000000000000000    0.0000000000000004
    -1.5933545514721685    7.1137180578456007   -0.1471892680093361
     0.0000000000000000    0.0000000000000000   39.8905894600000011
   Ir   O 
    20    40
Selective dynamics
Direct
  0.2461981223128684  0.9845366753876479  0.5071624900244429   T   T   T
  0.7461981223128685  0.9845366753876479  0.5071624900244429   T   T   T
  0.2527644706339867  0.0106993615098784  0.6429677512262065   T   T   T
  0.7527644706339865  0.0106993615098784  0.6429677512262065   T   T   T
  0.0789567143539014  0.3157500727909484  0.7014754594878785   T   T   T
  0.5789567143539013  0.3157500727909484  0.7014754594878785   T   T   T
  0.4245281263488170  0.6977859881147924  0.6981991697926383   T   T   T
  0.9245281263488171  0.6977859881147924  0.6981991697926383   T   T   T
  0.0001323930676579  0.0004337966718562  0.5746710422267908   T   T   T
  0.5001323930676578  0.0004337966718562  0.5746710422267908   T   T   T
  0.2459474349999979  0.9837897399999989  0.2571030900000011   F   F   F
  0.7459474349999979  0.9837897399999989  0.2571030900000011   F   F   F
  0.2540525650000021  0.0162102600000011  0.3928969099999975   F   F   F
  0.7540525650000021  0.0162102600000011  0.3928969099999975   F   F   F
  0.0781482550000021  0.3125930200000013  0.4539449600000012   F   F   F
  0.5781482550000021  0.3125930200000013  0.4539449600000012   F   F   F
  0.4218517449999979  0.6874069799999987  0.4460550399999974   F   F   F
  0.9218517449999979  0.6874069799999987  0.4460550399999974   F   F   F
  0.0000000000000000  0.0000000000000000  0.3250000000000028   F   F   F
  0.5000000000000000  0.0000000000000000  0.3250000000000028   F   F   F
  0.0291981849999985  0.1167927300000002  0.4882341100000005   F   F   F
  0.5291981849999985  0.1167927300000002  0.4882341100000005   F   F   F
  0.4705727259759152  0.8819080070985709  0.6628070465331956   T   T   T
  0.9705727259759152  0.8819080070985709  0.6628070465331956   T   T   T
  0.0344443114223985  0.1376141407999322  0.6203939960914886   T   T   T
  0.5344443114223985  0.1376141407999322  0.6203939960914886   T   T   T
  0.4644767458780183  0.8577500821583051  0.5295508265649183   T   T   T
  0.9644767458780182  0.8577500821583051  0.5295508265649183   T   T   T
  0.2806993279502001  0.1227162783870467  0.5513366670922329   T   T   T
  0.7806993279502000  0.1227162783870467  0.5513366670922329   T   T   T
  0.2207350335285116  0.8826578652173487  0.5981150052464731   T   T   T
  0.7207350335285115  0.8826578652173487  0.5981150052464731   T   T   T
  0.2956335674702637  0.1823694156322804  0.6830461466305490   T   T   T
  0.7956335674702639  0.1823694156322804  0.6830461466305490   T   T   T
  0.2015914035120394  0.8059829526084702  0.7203489648524916   T   T   T
  0.7015914035120394  0.8059829526084702  0.7203489648524916   T   T   T
  0.3630654363284431  0.4522514036838376  0.7221766591619826   T   T   T
  0.8630654363284429  0.4522514036838376  0.7221766591619826   T   T   T
  0.1380860183043811  0.5521226245220513  0.6761053614521233   T   T   T
  0.6380860183043809  0.5521226245220513  0.6761053614521233   T   T   T
  0.0291981849999985  0.1167927300000002  0.2382341100000005   F   F   F
  0.5291981849999985  0.1167927300000002  0.2382341100000005   F   F   F
  0.4708018150000015  0.8832072699999998  0.4117658899999981   F   F   F
  0.9708018150000015  0.8832072699999998  0.4117658899999981   F   F   F
  0.0354554099999973  0.1418216400000034  0.3702286899999976   F   F   F
  0.5354554099999973  0.1418216400000034  0.3702286899999976   F   F   F
  0.4645445900000027  0.8581783599999966  0.2797713100000010   F   F   F
  0.9645445900000027  0.8581783599999966  0.2797713100000010   F   F   F
  0.2796837300000021  0.1187349300000022  0.3014021500000013   F   F   F
  0.7796837300000021  0.1187349300000022  0.3014021500000013   F   F   F
  0.2203162699999979  0.8812650699999978  0.3485978499999973   F   F   F
  0.7203162699999979  0.8812650699999978  0.3485978499999973   F   F   F
  0.2979883499999971  0.1919534000000027  0.4317825099999979   F   F   F
  0.7979883499999971  0.1919534000000027  0.4317825099999979   F   F   F
  0.2020116500000029  0.8080465999999973  0.4682174900000007   F   F   F
  0.7020116500000029  0.8080465999999973  0.4682174900000007   F   F   F
  0.3637870499999991  0.4551481999999965  0.4744018700000012   F   F   F
  0.8637870499999991  0.4551481999999965  0.4744018700000012   F   F   F
  0.1362129500000009  0.5448518000000035  0.4255981299999974   F   F   F
  0.6362129500000009  0.5448518000000035  0.4255981299999974   F   F   F
 
  0.00000000E+00  0.00000000E+00  0.00000000E+00
  0.00000000E+00  0.00000000E+00  0.00000000E+00
  0.00000000E+00  0.00000000E+00  0.00000000E+00
  0.00000000E+00  0.00000000E+00  0.00000000E+00
  0.00000000E+00  0.00000000E+00  0.00000000E+00
  0.00000000E+00  0.00000000E+00  0.00000000E+00
  0.00000000E+00  0.00000000E+00  0.00000000E+00
  0.00000000E+00  0.00000000E+00  0.00000000E+00
  0.00000000E+00  0.00000000E+00  0.00000000E+00
  0.00000000E+00  0.00000000E+00  0.00000000E+00
  0.00000000E+00  0.00000000E+00  0.00000000E+00
  0.00000000E+00  0.00000000E+00  0.00000000E+00
  0.00000000E+00  0.00000000E+00  0.00000000E+00
  0.00000000E+00  0.00000000E+00  0.00000000E+00
  0.00000000E+00  0.00000000E+00  0.00000000E+00
  0.00000000E+00  0.00000000E+00  0.00000000E+00
  0.00000000E+00  0.00000000E+00  0.00000000E+00
  0.00000000E+00  0.00000000E+00  0.00000000E+00
  0.00000000E+00  0.00000000E+00  0.00000000E+00
  0.00000000E+00  0.00000000E+00  0.00000000E+00
  0.00000000E+00  0.00000000E+00  0.00000000E+00
  0.00000000E+00  0.00000000E+00  0.00000000E+00
  0.00000000E+00  0.00000000E+00  0.00000000E+00
  0.00000000E+00  0.00000000E+00  0.00000000E+00
  0.00000000E+00  0.00000000E+00  0.00000000E+00
  0.00000000E+00  0.00000000E+00  0.00000000E+00
  0.00000000E+00  0.00000000E+00  0.00000000E+00
  0.00000000E+00  0.00000000E+00  0.00000000E+00
  0.00000000E+00  0.00000000E+00  0.00000000E+00
  0.00000000E+00  0.00000000E+00  0.00000000E+00
  0.00000000E+00  0.00000000E+00  0.00000000E+00
  0.00000000E+00  0.00000000E+00  0.00000000E+00
  0.00000000E+00  0.00000000E+00  0.00000000E+00
  0.00000000E+00  0.00000000E+00  0.00000000E+00
  0.00000000E+00  0.00000000E+00  0.00000000E+00
  0.00000000E+00  0.00000000E+00  0.00000000E+00
  0.00000000E+00  0.00000000E+00  0.00000000E+00
  0.00000000E+00  0.00000000E+00  0.00000000E+00
  0.00000000E+00  0.00000000E+00  0.00000000E+00
  0.00000000E+00  0.00000000E+00  0.00000000E+00
  0.00000000E+00  0.00000000E+00  0.00000000E+00
  0.00000000E+00  0.00000000E+00  0.00000000E+00
  0.00000000E+00  0.00000000E+00  0.00000000E+00
  0.00000000E+00  0.00000000E+00  0.00000000E+00
  0.00000000E+00  0.00000000E+00  0.00000000E+00
  0.00000000E+00  0.00000000E+00  0.00000000E+00
  0.00000000E+00  0.00000000E+00  0.00000000E+00
  0.00000000E+00  0.00000000E+00  0.00000000E+00
  0.00000000E+00  0.00000000E+00  0.00000000E+00
  0.00000000E+00  0.00000000E+00  0.00000000E+00
  0.00000000E+00  0.00000000E+00  0.00000000E+00
  0.00000000E+00  0.00000000E+00  0.00000000E+00
  0.00000000E+00  0.00000000E+00  0.00000000E+00
  0.00000000E+00  0.00000000E+00  0.00000000E+00
  0.00000000E+00  0.00000000E+00  0.00000000E+00
  0.00000000E+00  0.00000000E+00  0.00000000E+00
  0.00000000E+00  0.00000000E+00  0.00000000E+00
  0.00000000E+00  0.00000000E+00  0.00000000E+00
  0.00000000E+00  0.00000000E+00  0.00000000E+00
  0.00000000E+00  0.00000000E+00  0.00000000E+00
