Ir19 O40                                
   1.00000000000000     
     6.2927695945796778    0.0000000000000000    0.3302847473392688
     0.0000000000000016   10.0578580399999993    0.0000000000000006
     0.0000000000000000    0.0000000000000000   30.0559119800000012
   Ir   O 
    19    40
Selective dynamics
Direct
  0.2995059742701609  0.4690808211390415  0.6628782134590452   T   T   T
  0.3122720727795473  0.0094647761049668  0.6666756677065445   T   T   T
  0.8102858723495888  0.0072402933000237  0.6677381211774166   T   T   T
  0.0904791056224220  0.4916794973142245  0.5700358123034565   T   T   T
  0.5951319521016090  0.5023217027658901  0.5798112315593960   T   T   T
  0.0804618052004236  0.0035312961300504  0.5726449342847552   T   T   T
  0.5805952540444462  0.0008595881375517  0.5768729338646373   T   T   T
  0.3181818199999995  0.5000000000000000  0.4930069929605452   F   F   F
  0.8181818199999995  0.5000000000000000  0.4820179819613486   F   F   F
  0.3181818199999995  0.0000000000000000  0.4930069929605452   F   F   F
  0.8181818199999995  0.0000000000000000  0.4820179819613486   F   F   F
  0.0454545449999983  0.5000000000000000  0.4080919090100608   F   F   F
  0.5454545449999983  0.5000000000000000  0.3971028980108571   F   F   F
  0.0454545449999983  0.0000000000000000  0.4080919090100608   F   F   F
  0.5454545449999983  0.0000000000000000  0.3971028980108571   F   F   F
  0.2727272750000012  0.5000000000000000  0.3121878139504872   F   F   F
  0.7727272750000012  0.5000000000000000  0.3011988029512835   F   F   F
  0.2727272750000012  0.0000000000000000  0.3121878139504872   F   F   F
  0.7727272750000012  0.0000000000000000  0.3011988029512835   F   F   F
  0.1015585391656538  0.5790165678597705  0.6268194627694743   T   T   T
  0.5127891210041030  0.6107840400915050  0.6261650034633123   T   T   T
  0.0696733238322870  0.9216929334051202  0.6342803781983885   T   T   T
  0.5716185315282387  0.9143479357216148  0.6375951075798592   T   T   T
  0.0821096085217060  0.4168286489846364  0.6962938842156824   T   T   T
  0.5140972580966400  0.4739706459220124  0.6968511649245668   T   T   T
  0.0546146099660984  0.0669582589469108  0.6969492855325166   T   T   T
  0.5516822884162198  0.0666699135699542  0.6992645108196377   T   T   T
  0.3506571589369938  0.6022399465504139  0.5485254403093389   T   T   T
  0.8390055976890056  0.5893115159104210  0.5438876996781058   T   T   T
  0.3444570911741375  0.8980772577705364  0.5503275263904672   T   T   T
  0.8293366900759027  0.9143155822577705  0.5435132148663687   T   T   T
  0.3268825599689451  0.3897696077768242  0.6021883549140850   T   T   T
  0.8298883471430503  0.3944559548221340  0.5931702342380125   T   T   T
  0.3222045167064679  0.0931233317077667  0.6054422128865496   T   T   T
  0.8268251700885239  0.0918277146634283  0.6051026461855263   T   T   T
  0.0606060599999978  0.5897138999999996  0.4683649686800848   F   F   F
  0.5606060599999978  0.5897138999999996  0.4573759576808811   F   F   F
  0.0606060599999978  0.9102861000000004  0.4683649686800848   F   F   F
  0.5606060599999978  0.9102861000000004  0.4573759576808811   F   F   F
  0.0560690401914309  0.3895915838393579  0.5113005753504714   T   T   T
  0.5747452814114387  0.4138336198225648  0.5179071833804152   T   T   T
  0.0568903828050205  0.1064232782734639  0.5143882442625405   T   T   T
  0.5755548589928964  0.0919821993482585  0.5160863658810578   T   T   T
  0.2878787900000006  0.5897138999999996  0.3724608736205042   F   F   F
  0.7878787900000006  0.5897138999999996  0.3614718626213005   F   F   F
  0.2878787900000006  0.9102861000000004  0.3724608736205042   F   F   F
  0.7878787900000006  0.9102861000000004  0.3614718626213005   F   F   F
  0.3030303050000001  0.4102861000000004  0.4327339332905282   F   F   F
  0.8030303050000001  0.4102861000000004  0.4217449222913245   F   F   F
  0.3030303050000001  0.0897138999999996  0.4327339332905282   F   F   F
  0.8030303050000001  0.0897138999999996  0.4217449222913245   F   F   F
  0.0151515149999994  0.5897138999999996  0.2875457896700198   F   F   F
  0.5151515149999994  0.5897138999999996  0.2765567786708161   F   F   F
  0.0151515149999994  0.9102861000000004  0.2875457896700198   F   F   F
  0.5151515149999994  0.9102861000000004  0.2765567786708161   F   F   F
  0.0303030299999989  0.4102861000000004  0.3478188493400438   F   F   F
  0.5303030299999989  0.4102861000000004  0.3368298383408401   F   F   F
  0.0303030299999989  0.0897138999999996  0.3478188493400438   F   F   F
  0.5303030299999989  0.0897138999999996  0.3368298383408401   F   F   F
 
  0.00000000E+00  0.00000000E+00  0.00000000E+00
  0.00000000E+00  0.00000000E+00  0.00000000E+00
  0.00000000E+00  0.00000000E+00  0.00000000E+00
  0.00000000E+00  0.00000000E+00  0.00000000E+00
  0.00000000E+00  0.00000000E+00  0.00000000E+00
  0.00000000E+00  0.00000000E+00  0.00000000E+00
  0.00000000E+00  0.00000000E+00  0.00000000E+00
  0.00000000E+00  0.00000000E+00  0.00000000E+00
  0.00000000E+00  0.00000000E+00  0.00000000E+00
  0.00000000E+00  0.00000000E+00  0.00000000E+00
  0.00000000E+00  0.00000000E+00  0.00000000E+00
  0.00000000E+00  0.00000000E+00  0.00000000E+00
  0.00000000E+00  0.00000000E+00  0.00000000E+00
  0.00000000E+00  0.00000000E+00  0.00000000E+00
  0.00000000E+00  0.00000000E+00  0.00000000E+00
  0.00000000E+00  0.00000000E+00  0.00000000E+00
  0.00000000E+00  0.00000000E+00  0.00000000E+00
  0.00000000E+00  0.00000000E+00  0.00000000E+00
  0.00000000E+00  0.00000000E+00  0.00000000E+00
  0.00000000E+00  0.00000000E+00  0.00000000E+00
  0.00000000E+00  0.00000000E+00  0.00000000E+00
  0.00000000E+00  0.00000000E+00  0.00000000E+00
  0.00000000E+00  0.00000000E+00  0.00000000E+00
  0.00000000E+00  0.00000000E+00  0.00000000E+00
  0.00000000E+00  0.00000000E+00  0.00000000E+00
  0.00000000E+00  0.00000000E+00  0.00000000E+00
  0.00000000E+00  0.00000000E+00  0.00000000E+00
  0.00000000E+00  0.00000000E+00  0.00000000E+00
  0.00000000E+00  0.00000000E+00  0.00000000E+00
  0.00000000E+00  0.00000000E+00  0.00000000E+00
  0.00000000E+00  0.00000000E+00  0.00000000E+00
  0.00000000E+00  0.00000000E+00  0.00000000E+00
  0.00000000E+00  0.00000000E+00  0.00000000E+00
  0.00000000E+00  0.00000000E+00  0.00000000E+00
  0.00000000E+00  0.00000000E+00  0.00000000E+00
  0.00000000E+00  0.00000000E+00  0.00000000E+00
  0.00000000E+00  0.00000000E+00  0.00000000E+00
  0.00000000E+00  0.00000000E+00  0.00000000E+00
  0.00000000E+00  0.00000000E+00  0.00000000E+00
  0.00000000E+00  0.00000000E+00  0.00000000E+00
  0.00000000E+00  0.00000000E+00  0.00000000E+00
  0.00000000E+00  0.00000000E+00  0.00000000E+00
  0.00000000E+00  0.00000000E+00  0.00000000E+00
  0.00000000E+00  0.00000000E+00  0.00000000E+00
  0.00000000E+00  0.00000000E+00  0.00000000E+00
  0.00000000E+00  0.00000000E+00  0.00000000E+00
  0.00000000E+00  0.00000000E+00  0.00000000E+00
  0.00000000E+00  0.00000000E+00  0.00000000E+00
  0.00000000E+00  0.00000000E+00  0.00000000E+00
  0.00000000E+00  0.00000000E+00  0.00000000E+00
  0.00000000E+00  0.00000000E+00  0.00000000E+00
  0.00000000E+00  0.00000000E+00  0.00000000E+00
  0.00000000E+00  0.00000000E+00  0.00000000E+00
  0.00000000E+00  0.00000000E+00  0.00000000E+00
  0.00000000E+00  0.00000000E+00  0.00000000E+00
  0.00000000E+00  0.00000000E+00  0.00000000E+00
  0.00000000E+00  0.00000000E+00  0.00000000E+00
  0.00000000E+00  0.00000000E+00  0.00000000E+00
  0.00000000E+00  0.00000000E+00  0.00000000E+00
