H1 Ir32 O65                             
   1.00000000000000     
     6.3743804800000001    0.0000000000000000    0.0000000000000004
     0.0000000000000016   10.1020391709426818    0.0826870943907734
     0.0000000000000000    0.0000000000000000   40.9706790400000003
   H    Ir   O 
     1    32    65
Selective dynamics
Direct
  0.4070502069658738  0.2229177241234250  0.7706276823768606   T   T   T
  0.0000000000000000  0.3503849100000025  0.3340635200000008   F   F   F
  0.5000000000000000  0.3503849100000025  0.3340635200000008   F   F   F
  0.2500000000000000  0.1496150899999975  0.2909364799999992   F   F   F
  0.7500000000000000  0.1496150899999975  0.2909364799999992   F   F   F
  0.2500000000000000  0.3345320900000033  0.4118872999999965   F   F   F
  0.7500000000000000  0.3345320900000033  0.4118872999999965   F   F   F
  0.0000000000000000  0.1654679099999967  0.4631127000000035   F   F   F
  0.5000000000000000  0.1654679099999967  0.4631127000000035   F   F   F
  0.2500000000000000  0.8503849100000025  0.4590635200000008   F   F   F
  0.7500000000000000  0.8503849100000025  0.4590635200000008   F   F   F
  0.0000000000000000  0.6496150899999975  0.4159364799999992   F   F   F
  0.5000000000000000  0.6496150899999975  0.4159364799999992   F   F   F
  0.0000000000000000  0.8345320900000033  0.2868872999999965   F   F   F
  0.5000000000000000  0.8345320900000033  0.2868872999999965   F   F   F
  0.2500000000000000  0.6654679099999967  0.3381127000000035   F   F   F
  0.7500000000000000  0.6654679099999967  0.3381127000000035   F   F   F
 -0.0006681294516257  0.3531993474228905  0.5839477765287436   T   T   T
  0.4993397085162796  0.3533360871721609  0.5839180857863423   T   T   T
  0.2493908729917510  0.1518411289196629  0.5409323527812534   T   T   T
  0.7494443703749148  0.1518692930415788  0.5409359922206342   T   T   T
  0.2483060680038379  0.3326601163698248  0.6619658194416207   T   T   T
  0.7481058868399257  0.3322313143409703  0.6617430669012156   T   T   T
 -0.0031389893299871  0.1575262297462602  0.7108377220328448   T   T   T
  0.4968710741422832  0.1615608123575994  0.7144222593532136   T   T   T
  0.2493162176448566  0.8466290256517971  0.7114301136338314   T   T   T
  0.7492732452719530  0.8467562584401678  0.7117305811033687   T   T   T
 -0.0012603714293289  0.6491341141364784  0.6661848710175606   T   T   T
  0.4988728585938050  0.6487010639019630  0.6661879914669945   T   T   T
 -0.0005490453898088  0.8368039483303750  0.5370327981978371   T   T   T
  0.4994239761397320  0.8368272192266439  0.5370071953931049   T   T   T
  0.2493003121930803  0.6680219628689893  0.5882926719473305   T   T   T
  0.7492965815965440  0.6680896106701228  0.5882732139239396   T   T   T
  0.2500000000000000  0.3413040399999971  0.3638725499999964   F   F   F
  0.7500000000000000  0.3413040399999971  0.3638725499999964   F   F   F
  0.0000000000000000  0.1586959600000029  0.2611274499999965   F   F   F
  0.5000000000000000  0.1586959600000029  0.2611274499999965   F   F   F
  0.2500000000000000  0.3432976799999992  0.3026394400000001   F   F   F
  0.7500000000000000  0.3432976799999992  0.3026394400000001   F   F   F
  0.0000000000000000  0.1567023200000008  0.3223605599999999   F   F   F
  0.5000000000000000  0.1567023200000008  0.3223605599999999   F   F   F
  0.0000000000000000  0.5448724299999981  0.3370376000000022   F   F   F
  0.5000000000000000  0.5448724299999981  0.3370376000000022   F   F   F
  0.2500000000000000  0.9551275700000019  0.2879623999999978   F   F   F
  0.7500000000000000  0.9551275700000019  0.2879623999999978   F   F   F
  0.0000000000000000  0.2072168199999993  0.4147625000000019   F   F   F
  0.5000000000000000  0.2072168199999993  0.4147625000000019   F   F   F
  0.2500000000000000  0.2927831800000007  0.4602374999999981   F   F   F
  0.7500000000000000  0.2927831800000007  0.4602374999999981   F   F   F
  0.0000000000000000  0.8413040399999971  0.4888725499999964   F   F   F
  0.5000000000000000  0.8413040399999971  0.4888725499999964   F   F   F
  0.2500000000000000  0.6586959600000029  0.3861274499999965   F   F   F
  0.7500000000000000  0.6586959600000029  0.3861274499999965   F   F   F
  0.0000000000000000  0.8432976799999992  0.4276394400000001   F   F   F
  0.5000000000000000  0.8432976799999992  0.4276394400000001   F   F   F
  0.2500000000000000  0.6567023200000008  0.4473605599999999   F   F   F
  0.7500000000000000  0.6567023200000008  0.4473605599999999   F   F   F
  0.2500000000000000  0.0448724299999981  0.4620376000000022   F   F   F
  0.7500000000000000  0.0448724299999981  0.4620376000000022   F   F   F
  0.0000000000000000  0.4551275700000019  0.4129623999999978   F   F   F
  0.5000000000000000  0.4551275700000019  0.4129623999999978   F   F   F
  0.2500000000000000  0.7072168199999993  0.2897625000000019   F   F   F
  0.7500000000000000  0.7072168199999993  0.2897625000000019   F   F   F
  0.0000000000000000  0.7927831800000007  0.3352374999999981   F   F   F
  0.5000000000000000  0.7927831800000007  0.3352374999999981   F   F   F
  0.2500360165411178  0.3444301624273161  0.6136970469244406   T   T   T
  0.7484124341745643  0.3442622432973657  0.6135762783490224   T   T   T
 -0.0004642503365906  0.1596830589206738  0.5112265687804195   T   T   T
  0.4995436367819283  0.1594330432199693  0.5112126696820833   T   T   T
  0.2491161849491059  0.3462233027288672  0.5524720489260205   T   T   T
  0.7495823775141068  0.3463504456970869  0.5524064139891051   T   T   T
 -0.0005905276150549  0.1594370739976911  0.5723158218090622   T   T   T
  0.4994512512983314  0.1597222385212000  0.5722783713282832   T   T   T
 -0.0007335563753198  0.5476634537051962  0.5869626066130565   T   T   T
  0.4993162078974580  0.5477815090580083  0.5868635964485465   T   T   T
  0.2495094802740961  0.9572165975247824  0.5380050952612027   T   T   T
  0.7494575540669761  0.9572247578019462  0.5380173469227085   T   T   T
 -0.0009995725524988  0.2043210673651014  0.6632321186214840   T   T   T
  0.4973210337201408  0.2062916256117156  0.6654573973919881   T   T   T
  0.2462283859802959  0.2869910204302163  0.7103785652495898   T   T   T
  0.7482975636776998  0.2855828241692269  0.7096653796359723   T   T   T
 -0.0007988115485662  0.8283852199465106  0.7394485327721351   T   T   T
  0.4984004810090693  0.8300694849235410  0.7396352913786021   T   T   T
  0.2491300557051372  0.6590476049417351  0.6365297206954666   T   T   T
  0.7487395053638466  0.6591248067958830  0.6365265631962160   T   T   T
 -0.0012255752312669  0.8393723107320258  0.6791778635997788   T   T   T
  0.4994356123793182  0.8385156841831859  0.6793128225041167   T   T   T
  0.2486374591154048  0.6541093683921769  0.6974244855359145   T   T   T
  0.7490403360625335  0.6552959153142505  0.6972990842800849   T   T   T
  0.2505620940415833  0.0419504733225355  0.7139954210214651   T   T   T
  0.7494063703760832  0.0404540514822071  0.7150045550617901   T   T   T
 -0.0018109850105864  0.4532899610239462  0.6630043448662991   T   T   T
  0.4984194222358740  0.4531633948250215  0.6631892344770173   T   T   T
  0.2493503450348648  0.7097778696673170  0.5399381503095508   T   T   T
  0.7494324569943670  0.7097941455229889  0.5399216328198064   T   T   T
 -0.0006666276317866  0.7952427729574927  0.5854329467047049   T   T   T
  0.4992379201148786  0.7954179850234896  0.5853964619841874   T   T   T
  0.5213577864712271  0.1698303112330726  0.7615856131499100   T   T   T
 
  0.00000000E+00  0.00000000E+00  0.00000000E+00
  0.00000000E+00  0.00000000E+00  0.00000000E+00
  0.00000000E+00  0.00000000E+00  0.00000000E+00
  0.00000000E+00  0.00000000E+00  0.00000000E+00
  0.00000000E+00  0.00000000E+00  0.00000000E+00
  0.00000000E+00  0.00000000E+00  0.00000000E+00
  0.00000000E+00  0.00000000E+00  0.00000000E+00
  0.00000000E+00  0.00000000E+00  0.00000000E+00
  0.00000000E+00  0.00000000E+00  0.00000000E+00
  0.00000000E+00  0.00000000E+00  0.00000000E+00
  0.00000000E+00  0.00000000E+00  0.00000000E+00
  0.00000000E+00  0.00000000E+00  0.00000000E+00
  0.00000000E+00  0.00000000E+00  0.00000000E+00
  0.00000000E+00  0.00000000E+00  0.00000000E+00
  0.00000000E+00  0.00000000E+00  0.00000000E+00
  0.00000000E+00  0.00000000E+00  0.00000000E+00
  0.00000000E+00  0.00000000E+00  0.00000000E+00
  0.00000000E+00  0.00000000E+00  0.00000000E+00
  0.00000000E+00  0.00000000E+00  0.00000000E+00
  0.00000000E+00  0.00000000E+00  0.00000000E+00
  0.00000000E+00  0.00000000E+00  0.00000000E+00
  0.00000000E+00  0.00000000E+00  0.00000000E+00
  0.00000000E+00  0.00000000E+00  0.00000000E+00
  0.00000000E+00  0.00000000E+00  0.00000000E+00
  0.00000000E+00  0.00000000E+00  0.00000000E+00
  0.00000000E+00  0.00000000E+00  0.00000000E+00
  0.00000000E+00  0.00000000E+00  0.00000000E+00
  0.00000000E+00  0.00000000E+00  0.00000000E+00
  0.00000000E+00  0.00000000E+00  0.00000000E+00
  0.00000000E+00  0.00000000E+00  0.00000000E+00
  0.00000000E+00  0.00000000E+00  0.00000000E+00
  0.00000000E+00  0.00000000E+00  0.00000000E+00
  0.00000000E+00  0.00000000E+00  0.00000000E+00
  0.00000000E+00  0.00000000E+00  0.00000000E+00
  0.00000000E+00  0.00000000E+00  0.00000000E+00
  0.00000000E+00  0.00000000E+00  0.00000000E+00
  0.00000000E+00  0.00000000E+00  0.00000000E+00
  0.00000000E+00  0.00000000E+00  0.00000000E+00
  0.00000000E+00  0.00000000E+00  0.00000000E+00
  0.00000000E+00  0.00000000E+00  0.00000000E+00
  0.00000000E+00  0.00000000E+00  0.00000000E+00
  0.00000000E+00  0.00000000E+00  0.00000000E+00
  0.00000000E+00  0.00000000E+00  0.00000000E+00
  0.00000000E+00  0.00000000E+00  0.00000000E+00
  0.00000000E+00  0.00000000E+00  0.00000000E+00
  0.00000000E+00  0.00000000E+00  0.00000000E+00
  0.00000000E+00  0.00000000E+00  0.00000000E+00
  0.00000000E+00  0.00000000E+00  0.00000000E+00
  0.00000000E+00  0.00000000E+00  0.00000000E+00
  0.00000000E+00  0.00000000E+00  0.00000000E+00
  0.00000000E+00  0.00000000E+00  0.00000000E+00
  0.00000000E+00  0.00000000E+00  0.00000000E+00
  0.00000000E+00  0.00000000E+00  0.00000000E+00
  0.00000000E+00  0.00000000E+00  0.00000000E+00
  0.00000000E+00  0.00000000E+00  0.00000000E+00
  0.00000000E+00  0.00000000E+00  0.00000000E+00
  0.00000000E+00  0.00000000E+00  0.00000000E+00
  0.00000000E+00  0.00000000E+00  0.00000000E+00
  0.00000000E+00  0.00000000E+00  0.00000000E+00
  0.00000000E+00  0.00000000E+00  0.00000000E+00
  0.00000000E+00  0.00000000E+00  0.00000000E+00
  0.00000000E+00  0.00000000E+00  0.00000000E+00
  0.00000000E+00  0.00000000E+00  0.00000000E+00
  0.00000000E+00  0.00000000E+00  0.00000000E+00
  0.00000000E+00  0.00000000E+00  0.00000000E+00
  0.00000000E+00  0.00000000E+00  0.00000000E+00
  0.00000000E+00  0.00000000E+00  0.00000000E+00
  0.00000000E+00  0.00000000E+00  0.00000000E+00
  0.00000000E+00  0.00000000E+00  0.00000000E+00
  0.00000000E+00  0.00000000E+00  0.00000000E+00
  0.00000000E+00  0.00000000E+00  0.00000000E+00
  0.00000000E+00  0.00000000E+00  0.00000000E+00
  0.00000000E+00  0.00000000E+00  0.00000000E+00
  0.00000000E+00  0.00000000E+00  0.00000000E+00
  0.00000000E+00  0.00000000E+00  0.00000000E+00
  0.00000000E+00  0.00000000E+00  0.00000000E+00
  0.00000000E+00  0.00000000E+00  0.00000000E+00
  0.00000000E+00  0.00000000E+00  0.00000000E+00
  0.00000000E+00  0.00000000E+00  0.00000000E+00
  0.00000000E+00  0.00000000E+00  0.00000000E+00
  0.00000000E+00  0.00000000E+00  0.00000000E+00
  0.00000000E+00  0.00000000E+00  0.00000000E+00
  0.00000000E+00  0.00000000E+00  0.00000000E+00
  0.00000000E+00  0.00000000E+00  0.00000000E+00
  0.00000000E+00  0.00000000E+00  0.00000000E+00
  0.00000000E+00  0.00000000E+00  0.00000000E+00
  0.00000000E+00  0.00000000E+00  0.00000000E+00
  0.00000000E+00  0.00000000E+00  0.00000000E+00
  0.00000000E+00  0.00000000E+00  0.00000000E+00
  0.00000000E+00  0.00000000E+00  0.00000000E+00
  0.00000000E+00  0.00000000E+00  0.00000000E+00
  0.00000000E+00  0.00000000E+00  0.00000000E+00
  0.00000000E+00  0.00000000E+00  0.00000000E+00
  0.00000000E+00  0.00000000E+00  0.00000000E+00
  0.00000000E+00  0.00000000E+00  0.00000000E+00
  0.00000000E+00  0.00000000E+00  0.00000000E+00
  0.00000000E+00  0.00000000E+00  0.00000000E+00
  0.00000000E+00  0.00000000E+00  0.00000000E+00
