Ir23 O96                                
   1.00000000000000     
     8.8825717399999995    0.0000000000000000    0.0000000000000006
     0.0000000000000016   10.4413266599999996    0.0000000000000006
     0.0000000000000000    0.0000000000000000   33.7486279399999987
   Ir   O 
    23    96
Selective dynamics
Direct
  0.0000000000000000  0.2500000000000000  0.3873731500000019   F   F   F
  0.0000000000000000  0.7500000000000000  0.3873731500000019   F   F   F
  0.5000000000000000  0.2500000000000000  0.3873731500000019   F   F   F
  0.5000000000000000  0.7500000000000000  0.3873731500000019   F   F   F
  0.2500000000000000  0.2500000000000000  0.3040398099999990   F   F   F
  0.2500000000000000  0.7500000000000000  0.3040398099999990   F   F   F
  0.7500000000000000  0.2500000000000000  0.3040398099999990   F   F   F
  0.7500000000000000  0.7500000000000000  0.3040398099999990   F   F   F
 -0.0008853492290186  0.2506252394554129  0.5502068202753961   T   T   T
  0.0000948371320659  0.7497098903635350  0.5534216199803856   T   T   T
  0.5072349725007209  0.2561835072112668  0.5520466186694161   T   T   T
  0.5000347473186632  0.7498729734667191  0.5533072368539846   T   T   T
  0.2500000000000000  0.2500000000000000  0.4707064799999969   F   F   F
  0.2500000000000000  0.7500000000000000  0.4707064799999969   F   F   F
  0.7500000000000000  0.2500000000000000  0.4707064799999969   F   F   F
  0.7500000000000000  0.7500000000000000  0.4707064799999969   F   F   F
 -0.0006069742701305  0.7500215903624750  0.7250266406002950   T   T   T
  0.5076856370186444  0.2500666314502109  0.7354164169800035   T   T   T
  0.5000091656637430  0.7497547014467905  0.7246503126796814   T   T   T
  0.2505078587072802  0.2616164165301407  0.6291428063251066   T   T   T
  0.2499458304653945  0.7495171304442924  0.6367513090480155   T   T   T
  0.7669670639991099  0.2213886797127308  0.6346478646025948   T   T   T
  0.7501836222565266  0.7490833984157720  0.6367153959388958   T   T   T
  0.3743057900000011  0.1712332649999979  0.2658821799999984   F   F   F
  0.3743057900000011  0.6712332649999979  0.2658821799999984   F   F   F
  0.8743057900000011  0.1712332649999979  0.2658821799999984   F   F   F
  0.8743057900000011  0.6712332649999979  0.2658821799999984   F   F   F
  0.1106602850000016  0.1112853750000014  0.3945979200000025   F   F   F
  0.1106602850000016  0.6112853750000014  0.3945979200000025   F   F   F
  0.6106602850000016  0.1112853750000014  0.3945979200000025   F   F   F
  0.6106602850000016  0.6112853750000014  0.3945979200000025   F   F   F
  0.3606602850000016  0.3887146249999986  0.3112645799999996   F   F   F
  0.3606602850000016  0.8887146249999986  0.3112645799999996   F   F   F
  0.8606602850000016  0.3887146249999986  0.3112645799999996   F   F   F
  0.8606602850000016  0.8887146249999986  0.3112645799999996   F   F   F
  0.1243057900000011  0.3287667350000021  0.3492155100000005   F   F   F
  0.1243057900000011  0.8287667350000021  0.3492155100000005   F   F   F
  0.6243057900000011  0.3287667350000021  0.3492155100000005   F   F   F
  0.6243057900000011  0.8287667350000021  0.3492155100000005   F   F   F
  0.1256942099999989  0.3287667350000021  0.2658821799999984   F   F   F
  0.1256942099999989  0.8287667350000021  0.2658821799999984   F   F   F
  0.6256942099999989  0.3287667350000021  0.2658821799999984   F   F   F
  0.6256942099999989  0.8287667350000021  0.2658821799999984   F   F   F
  0.3893397149999984  0.3887146249999986  0.3945979200000025   F   F   F
  0.3893397149999984  0.8887146249999986  0.3945979200000025   F   F   F
  0.8893397149999984  0.3887146249999986  0.3945979200000025   F   F   F
  0.8893397149999984  0.8887146249999986  0.3945979200000025   F   F   F
  0.1393397149999984  0.1112853750000014  0.3112645799999996   F   F   F
  0.1393397149999984  0.6112853750000014  0.3112645799999996   F   F   F
  0.6393397149999984  0.1112853750000014  0.3112645799999996   F   F   F
  0.6393397149999984  0.6112853750000014  0.3112645799999996   F   F   F
  0.3756942099999989  0.1712332649999979  0.3492155100000005   F   F   F
  0.3756942099999989  0.6712332649999979  0.3492155100000005   F   F   F
  0.8756942099999989  0.1712332649999979  0.3492155100000005   F   F   F
  0.8756942099999989  0.6712332649999979  0.3492155100000005   F   F   F
  0.3743057900000011  0.1712332649999979  0.4325488400000026   F   F   F
  0.3743057900000011  0.6712332649999979  0.4325488400000026   F   F   F
  0.8743057900000011  0.1712332649999979  0.4325488400000026   F   F   F
  0.8743057900000011  0.6712332649999979  0.4325488400000026   F   F   F
  0.1265670329444955  0.1227426682521477  0.5580117507978918   T   T   T
  0.1093280672453789  0.6115865643829229  0.5620689193558751   T   T   T
  0.5929111692994159  0.1034743650199772  0.5542872841774658   T   T   T
  0.6088518095691405  0.6121187411987983  0.5623759291215307   T   T   T
  0.3606602850000016  0.3887146249999986  0.4779312499999975   F   F   F
  0.3606602850000016  0.8887146249999986  0.4779312499999975   F   F   F
  0.8606602850000016  0.3887146249999986  0.4779312499999975   F   F   F
  0.8606602850000016  0.8887146249999986  0.4779312499999975   F   F   F
  0.1179877919226881  0.3378874174751613  0.5139605162131635   T   T   T
  0.1254669939507466  0.8290253578961566  0.5161436058818065   T   T   T
  0.6324714139260773  0.3339357924205956  0.5147134514549803   T   T   T
  0.6260041904111636  0.8290229929716312  0.5160929006879483   T   T   T
  0.1256942099999989  0.3287667350000021  0.4325488400000026   F   F   F
  0.1256942099999989  0.8287667350000021  0.4325488400000026   F   F   F
  0.6256942099999989  0.3287667350000021  0.4325488400000026   F   F   F
  0.6256942099999989  0.8287667350000021  0.4325488400000026   F   F   F
  0.3957737598255546  0.3959453971200437  0.5554546162369490   T   T   T
  0.3911308767345156  0.8877353705468417  0.5625020677817463   T   T   T
  0.8723136903048857  0.3783989366812029  0.5589896058397124   T   T   T
  0.8906911591148389  0.8877889437241885  0.5621136594527970   T   T   T
  0.1393397149999984  0.1112853750000014  0.4779312499999975   F   F   F
  0.1393397149999984  0.6112853750000014  0.4779312499999975   F   F   F
  0.6393397149999984  0.1112853750000014  0.4779312499999975   F   F   F
  0.6393397149999984  0.6112853750000014  0.4779312499999975   F   F   F
  0.3707274749196069  0.1717626238675260  0.5145994523881227   T   T   T
  0.3741116765563612  0.6711980643914043  0.5159563016125485   T   T   T
  0.8806973932095729  0.1641019928970395  0.5134418246453658   T   T   T
  0.8745336799486145  0.6707468555965941  0.5160696202431754   T   T   T
  0.3652364247992744  0.1727114872969998  0.5915416803892838   T   T   T
  0.3800837677689777  0.6698756026607301  0.6017685611861592   T   T   T
  0.8829763255934485  0.1503264071416479  0.5961750110020827   T   T   T
  0.8801875459886497  0.6691580650346043  0.6017044036312944   T   T   T
  0.1251154618906502  0.2137949191986916  0.7099518434181069   T   T   T
  0.1075014515578737  0.6464011873096687  0.7539329258328052   T   T   T
  0.5872877375376427  0.1298641050995976  0.7641176095177137   T   T   T
  0.6069814157344435  0.6458776675387231  0.7538379732729015   T   T   T
  0.3847493370379795  0.3748564317630534  0.6436617486842724   T   T   T
  0.3569695116282913  0.8835750558149543  0.6508813042910938   T   T   T
  0.8251533124159006  0.3795997570044722  0.6425465508367029   T   T   T
  0.8560774531708933  0.8836413982468114  0.6509539943272490   T   T   T
  0.1379192266791829  0.3096522314554219  0.6871040471923311   T   T   T
  0.1229707744705286  0.8340747691685619  0.6920552635640086   T   T   T
  0.6398215892855219  0.3245258912132280  0.7031541576355549   T   T   T
  0.6235774731105926  0.8347739751813814  0.6918903480188036   T   T   T
  0.1053091283068244  0.3416223383763928  0.5998111403765342   T   T   T
  0.1199592311005909  0.8298743658731722  0.6017696221253824   T   T   T
  0.6415314151824324  0.3154445352070340  0.5941222645804086   T   T   T
  0.6202753361260736  0.8294992516827285  0.6018316079121354   T   T   T
  0.4040785028332801  0.3668878097935606  0.7597915257376853   T   T   T
  0.3932825020899487  0.8537837073848141  0.7537551496181646   T   T   T
  0.8458386567566766  0.3631889085215364  0.7204244504554123   T   T   T
  0.8907764233943437  0.8534949263736867  0.7537097557750990   T   T   T
  0.1835257151073900  0.1097686587391474  0.6428468746956046   T   T   T
  0.1445820133614426  0.6145708932499039  0.6509268361356998   T   T   T
  0.6020677902717786  0.1281091790373367  0.6388819646321278   T   T   T
  0.6434189798318507  0.6153276398258345  0.6509810763243119   T   T   T
  0.3897951393975394  0.1689369479619778  0.7019634648471319   T   T   T
  0.3765112815374398  0.6645150298330437  0.6919221084519233   T   T   T
  0.8549350376823663  0.1578171645808694  0.6777779917894114   T   T   T
  0.8770687763142879  0.6653915070794943  0.6920165219146074   T   T   T
 
  0.00000000E+00  0.00000000E+00  0.00000000E+00
  0.00000000E+00  0.00000000E+00  0.00000000E+00
  0.00000000E+00  0.00000000E+00  0.00000000E+00
  0.00000000E+00  0.00000000E+00  0.00000000E+00
  0.00000000E+00  0.00000000E+00  0.00000000E+00
  0.00000000E+00  0.00000000E+00  0.00000000E+00
  0.00000000E+00  0.00000000E+00  0.00000000E+00
  0.00000000E+00  0.00000000E+00  0.00000000E+00
  0.00000000E+00  0.00000000E+00  0.00000000E+00
  0.00000000E+00  0.00000000E+00  0.00000000E+00
  0.00000000E+00  0.00000000E+00  0.00000000E+00
  0.00000000E+00  0.00000000E+00  0.00000000E+00
  0.00000000E+00  0.00000000E+00  0.00000000E+00
  0.00000000E+00  0.00000000E+00  0.00000000E+00
  0.00000000E+00  0.00000000E+00  0.00000000E+00
  0.00000000E+00  0.00000000E+00  0.00000000E+00
  0.00000000E+00  0.00000000E+00  0.00000000E+00
  0.00000000E+00  0.00000000E+00  0.00000000E+00
  0.00000000E+00  0.00000000E+00  0.00000000E+00
  0.00000000E+00  0.00000000E+00  0.00000000E+00
  0.00000000E+00  0.00000000E+00  0.00000000E+00
  0.00000000E+00  0.00000000E+00  0.00000000E+00
  0.00000000E+00  0.00000000E+00  0.00000000E+00
  0.00000000E+00  0.00000000E+00  0.00000000E+00
  0.00000000E+00  0.00000000E+00  0.00000000E+00
  0.00000000E+00  0.00000000E+00  0.00000000E+00
  0.00000000E+00  0.00000000E+00  0.00000000E+00
  0.00000000E+00  0.00000000E+00  0.00000000E+00
  0.00000000E+00  0.00000000E+00  0.00000000E+00
  0.00000000E+00  0.00000000E+00  0.00000000E+00
  0.00000000E+00  0.00000000E+00  0.00000000E+00
  0.00000000E+00  0.00000000E+00  0.00000000E+00
  0.00000000E+00  0.00000000E+00  0.00000000E+00
  0.00000000E+00  0.00000000E+00  0.00000000E+00
  0.00000000E+00  0.00000000E+00  0.00000000E+00
  0.00000000E+00  0.00000000E+00  0.00000000E+00
  0.00000000E+00  0.00000000E+00  0.00000000E+00
  0.00000000E+00  0.00000000E+00  0.00000000E+00
  0.00000000E+00  0.00000000E+00  0.00000000E+00
  0.00000000E+00  0.00000000E+00  0.00000000E+00
  0.00000000E+00  0.00000000E+00  0.00000000E+00
  0.00000000E+00  0.00000000E+00  0.00000000E+00
  0.00000000E+00  0.00000000E+00  0.00000000E+00
  0.00000000E+00  0.00000000E+00  0.00000000E+00
  0.00000000E+00  0.00000000E+00  0.00000000E+00
  0.00000000E+00  0.00000000E+00  0.00000000E+00
  0.00000000E+00  0.00000000E+00  0.00000000E+00
  0.00000000E+00  0.00000000E+00  0.00000000E+00
  0.00000000E+00  0.00000000E+00  0.00000000E+00
  0.00000000E+00  0.00000000E+00  0.00000000E+00
  0.00000000E+00  0.00000000E+00  0.00000000E+00
  0.00000000E+00  0.00000000E+00  0.00000000E+00
  0.00000000E+00  0.00000000E+00  0.00000000E+00
  0.00000000E+00  0.00000000E+00  0.00000000E+00
  0.00000000E+00  0.00000000E+00  0.00000000E+00
  0.00000000E+00  0.00000000E+00  0.00000000E+00
  0.00000000E+00  0.00000000E+00  0.00000000E+00
  0.00000000E+00  0.00000000E+00  0.00000000E+00
  0.00000000E+00  0.00000000E+00  0.00000000E+00
  0.00000000E+00  0.00000000E+00  0.00000000E+00
  0.00000000E+00  0.00000000E+00  0.00000000E+00
  0.00000000E+00  0.00000000E+00  0.00000000E+00
  0.00000000E+00  0.00000000E+00  0.00000000E+00
  0.00000000E+00  0.00000000E+00  0.00000000E+00
  0.00000000E+00  0.00000000E+00  0.00000000E+00
  0.00000000E+00  0.00000000E+00  0.00000000E+00
  0.00000000E+00  0.00000000E+00  0.00000000E+00
  0.00000000E+00  0.00000000E+00  0.00000000E+00
  0.00000000E+00  0.00000000E+00  0.00000000E+00
  0.00000000E+00  0.00000000E+00  0.00000000E+00
  0.00000000E+00  0.00000000E+00  0.00000000E+00
  0.00000000E+00  0.00000000E+00  0.00000000E+00
  0.00000000E+00  0.00000000E+00  0.00000000E+00
  0.00000000E+00  0.00000000E+00  0.00000000E+00
  0.00000000E+00  0.00000000E+00  0.00000000E+00
  0.00000000E+00  0.00000000E+00  0.00000000E+00
  0.00000000E+00  0.00000000E+00  0.00000000E+00
  0.00000000E+00  0.00000000E+00  0.00000000E+00
  0.00000000E+00  0.00000000E+00  0.00000000E+00
  0.00000000E+00  0.00000000E+00  0.00000000E+00
  0.00000000E+00  0.00000000E+00  0.00000000E+00
  0.00000000E+00  0.00000000E+00  0.00000000E+00
  0.00000000E+00  0.00000000E+00  0.00000000E+00
  0.00000000E+00  0.00000000E+00  0.00000000E+00
  0.00000000E+00  0.00000000E+00  0.00000000E+00
  0.00000000E+00  0.00000000E+00  0.00000000E+00
  0.00000000E+00  0.00000000E+00  0.00000000E+00
  0.00000000E+00  0.00000000E+00  0.00000000E+00
  0.00000000E+00  0.00000000E+00  0.00000000E+00
  0.00000000E+00  0.00000000E+00  0.00000000E+00
  0.00000000E+00  0.00000000E+00  0.00000000E+00
  0.00000000E+00  0.00000000E+00  0.00000000E+00
  0.00000000E+00  0.00000000E+00  0.00000000E+00
  0.00000000E+00  0.00000000E+00  0.00000000E+00
  0.00000000E+00  0.00000000E+00  0.00000000E+00
  0.00000000E+00  0.00000000E+00  0.00000000E+00
  0.00000000E+00  0.00000000E+00  0.00000000E+00
  0.00000000E+00  0.00000000E+00  0.00000000E+00
  0.00000000E+00  0.00000000E+00  0.00000000E+00
  0.00000000E+00  0.00000000E+00  0.00000000E+00
  0.00000000E+00  0.00000000E+00  0.00000000E+00
  0.00000000E+00  0.00000000E+00  0.00000000E+00
  0.00000000E+00  0.00000000E+00  0.00000000E+00
  0.00000000E+00  0.00000000E+00  0.00000000E+00
  0.00000000E+00  0.00000000E+00  0.00000000E+00
  0.00000000E+00  0.00000000E+00  0.00000000E+00
  0.00000000E+00  0.00000000E+00  0.00000000E+00
  0.00000000E+00  0.00000000E+00  0.00000000E+00
  0.00000000E+00  0.00000000E+00  0.00000000E+00
  0.00000000E+00  0.00000000E+00  0.00000000E+00
  0.00000000E+00  0.00000000E+00  0.00000000E+00
  0.00000000E+00  0.00000000E+00  0.00000000E+00
  0.00000000E+00  0.00000000E+00  0.00000000E+00
  0.00000000E+00  0.00000000E+00  0.00000000E+00
  0.00000000E+00  0.00000000E+00  0.00000000E+00
  0.00000000E+00  0.00000000E+00  0.00000000E+00
  0.00000000E+00  0.00000000E+00  0.00000000E+00
  0.00000000E+00  0.00000000E+00  0.00000000E+00
  0.00000000E+00  0.00000000E+00  0.00000000E+00
