H1 Ir32 O65                             
   1.00000000000000     
    10.1023775699999998    0.0000000000000000    0.0000000000000006
     0.0838353739394686   10.2423266615791402    0.0000000000000006
     0.0000000000000000    0.0000000000000000   28.6847121700000010
   H    Ir   O 
     1    32    65
Selective dynamics
Direct
  0.2652555234501748  0.3587767627459106  0.7730869977289415   T   T   T
  0.6496150899999975  0.6637459000000021  0.3611111100000031   F   F   F
  0.8503849100000025  0.8362540999999979  0.3055555600000019   F   F   F
  0.6654679099999967  0.3524508100000006  0.3055555600000019   F   F   F
  0.8345320900000033  0.1475491899999994  0.3611111100000031   F   F   F
  0.1496150899999975  0.1637459000000021  0.3055555600000019   F   F   F
  0.3503849100000025  0.3362540999999979  0.3611111100000031   F   F   F
  0.1654679099999967  0.8524508100000006  0.3611111100000031   F   F   F
  0.3345320900000033  0.6475491899999994  0.3055555600000019   F   F   F
  0.6496150899999975  0.6637459000000021  0.4722222199999990   F   F   F
  0.8503849100000025  0.8362540999999979  0.4166666699999979   F   F   F
  0.6654679099999967  0.3524508100000006  0.4166666699999979   F   F   F
  0.8345320900000033  0.1475491899999994  0.4722222199999990   F   F   F
  0.1496150899999975  0.1637459000000021  0.4166666699999979   F   F   F
  0.3503849100000025  0.3362540999999979  0.4722222199999990   F   F   F
  0.1654679099999967  0.8524508100000006  0.4722222199999990   F   F   F
  0.3345320900000033  0.6475491899999994  0.4166666699999979   F   F   F
  0.6472224788500275  0.6624427664208984  0.5821410913400419   T   T   T
  0.8490978465233397  0.8357485174064043  0.5285517797268521   T   T   T
  0.6657461863930803  0.3510766906207906  0.5283168800047334   T   T   T
  0.8357604064919694  0.1457090625812508  0.5820399138704747   T   T   T
  0.1516419343840280  0.1641648298298792  0.5285387632456017   T   T   T
  0.3527173734603343  0.3378592738128023  0.5824385874178485   T   T   T
  0.1650536454538286  0.8531205244667301  0.5821797382013789   T   T   T
  0.3339039505069835  0.6481835423130534  0.5283871472343363   T   T   T
  0.6387489321584976  0.6553545765132738  0.6894937057995086   T   T   T
  0.8427393939958133  0.8344775490082246  0.6423642582478650   T   T   T
  0.6651868275884190  0.3443171652473083  0.6420474294755351   T   T   T
  0.8444896313847933  0.1374730429517337  0.6891986671946843   T   T   T
  0.1581646724483994  0.1676676778231131  0.6418618515767173   T   T   T
  0.3551612181928502  0.3420092911700334  0.6945644284589872   T   T   T
  0.1583460231957232  0.8630197993719357  0.6891528060185613   T   T   T
  0.3321396349613472  0.6494997815619379  0.6424266026262379   T   T   T
  0.6586959600000029  0.5445098000000002  0.3055555600000019   F   F   F
  0.8413040399999971  0.9554901999999998  0.3611111100000031   F   F   F
  0.6567023200000008  0.7894422399999996  0.3055555600000019   F   F   F
  0.8432976799999992  0.7105577600000004  0.3611111100000031   F   F   F
  0.4551275700000019  0.6518496099999993  0.3611111100000031   F   F   F
  0.0448724299999981  0.8481503900000007  0.3055555600000019   F   F   F
  0.7927831800000007  0.3409499799999978  0.3611111100000031   F   F   F
  0.7072168199999993  0.1590500200000022  0.3055555600000019   F   F   F
  0.1586959600000029  0.0445098000000002  0.3611111100000031   F   F   F
  0.3413040399999971  0.4554901999999998  0.3055555600000019   F   F   F
  0.1567023200000008  0.2894422399999996  0.3611111100000031   F   F   F
  0.3432976799999992  0.2105577600000004  0.3055555600000019   F   F   F
  0.9551275700000019  0.1518496099999993  0.3055555600000019   F   F   F
  0.5448724299999981  0.3481503900000007  0.3611111100000031   F   F   F
  0.2927831800000007  0.8409499799999978  0.3055555600000019   F   F   F
  0.2072168199999993  0.6590500200000022  0.3611111100000031   F   F   F
  0.6586959600000029  0.5445098000000002  0.4166666699999979   F   F   F
  0.8413040399999971  0.9554901999999998  0.4722222199999990   F   F   F
  0.6567023200000008  0.7894422399999996  0.4166666699999979   F   F   F
  0.8432976799999992  0.7105577600000004  0.4722222199999990   F   F   F
  0.4551275700000019  0.6518496099999993  0.4722222199999990   F   F   F
  0.0448724299999981  0.8481503900000007  0.4166666699999979   F   F   F
  0.7927831800000007  0.3409499799999978  0.4722222199999990   F   F   F
  0.7072168199999993  0.1590500200000022  0.4166666699999979   F   F   F
  0.1586959600000029  0.0445098000000002  0.4722222199999990   F   F   F
  0.3413040399999971  0.4554901999999998  0.4166666699999979   F   F   F
  0.1567023200000008  0.2894422399999996  0.4722222199999990   F   F   F
  0.3432976799999992  0.2105577600000004  0.4166666699999979   F   F   F
  0.9551275700000019  0.1518496099999993  0.4166666699999979   F   F   F
  0.5448724299999981  0.3481503900000007  0.4722222199999990   F   F   F
  0.2927831800000007  0.8409499799999978  0.4166666699999979   F   F   F
  0.2072168199999993  0.6590500200000022  0.4722222199999990   F   F   F
  0.6586750650685873  0.5443465301762769  0.5278855835675836   T   T   T
  0.8430101689802196  0.9539453973862514  0.5842604650814358   T   T   T
  0.6541481834934705  0.7908747768278127  0.5276571139174491   T   T   T
  0.8394183923959351  0.7111494323790375  0.5839296147988914   T   T   T
  0.4534625161574791  0.6483376678150679  0.5843708881337909   T   T   T
  0.0445591505883813  0.8482917758785601  0.5278880716146059   T   T   T
  0.7901684939356655  0.3362717972835336  0.5841850493306302   T   T   T
  0.7056376764134558  0.1562886396748080  0.5276624642914500   T   T   T
  0.1602067601377427  0.0458182625447832  0.5845774158417713   T   T   T
  0.3416081485881357  0.4555814416360167  0.5277401626275726   T   T   T
  0.1607329611000084  0.2897373607242443  0.5838582930146868   T   T   T
  0.3459274677718245  0.2097608994292593  0.5277302264451976   T   T   T
  0.9559997064283239  0.1523362808469614  0.5277810989272190   T   T   T
  0.5457591616402089  0.3494600974923235  0.5840701467757481   T   T   T
  0.2944308357976669  0.8427080380150118  0.5277495441671861   T   T   T
  0.2076323796140397  0.6610258066546495  0.5837252321852637   T   T   T
  0.6621223109117038  0.5373492644346548  0.6382258893787924   T   T   T
  0.8501454944024196  0.9574566607862824  0.6966471613701375   T   T   T
  0.6495592713943013  0.7898910272620626  0.6377681274051372   T   T   T
  0.8167467508249913  0.7114387279900959  0.6949604788805441   T   T   T
  0.4570073241418444  0.6457658914747224  0.6960448122138364   T   T   T
  0.0378347816694148  0.8453435679385569  0.6383387088073709   T   T   T
  0.7901988405132698  0.3146660275929583  0.6947989601908572   T   T   T
  0.7068056583615983  0.1522330679616035  0.6379263627334040   T   T   T
  0.1523324105708354  0.0433187730245279  0.6958970532969267   T   T   T
  0.3424490438706371  0.4546598585304016  0.6395001718311280   T   T   T
  0.1742398254963185  0.2923906031022899  0.6938541450359492   T   T   T
  0.3512015608953834  0.2148709277797319  0.6384453886521290   T   T   T
  0.9630837928121223  0.1550938935631660  0.6380014952997423   T   T   T
  0.5410749547290422  0.3494848598993268  0.6946559991514768   T   T   T
  0.2937670586716837  0.8424697912295803  0.6377053374294206   T   T   T
  0.2076203536174285  0.6840067915949425  0.6946640213177396   T   T   T
  0.3561287503043153  0.3603000790106806  0.7610729894547736   T   T   T
 
  0.00000000E+00  0.00000000E+00  0.00000000E+00
  0.00000000E+00  0.00000000E+00  0.00000000E+00
  0.00000000E+00  0.00000000E+00  0.00000000E+00
  0.00000000E+00  0.00000000E+00  0.00000000E+00
  0.00000000E+00  0.00000000E+00  0.00000000E+00
  0.00000000E+00  0.00000000E+00  0.00000000E+00
  0.00000000E+00  0.00000000E+00  0.00000000E+00
  0.00000000E+00  0.00000000E+00  0.00000000E+00
  0.00000000E+00  0.00000000E+00  0.00000000E+00
  0.00000000E+00  0.00000000E+00  0.00000000E+00
  0.00000000E+00  0.00000000E+00  0.00000000E+00
  0.00000000E+00  0.00000000E+00  0.00000000E+00
  0.00000000E+00  0.00000000E+00  0.00000000E+00
  0.00000000E+00  0.00000000E+00  0.00000000E+00
  0.00000000E+00  0.00000000E+00  0.00000000E+00
  0.00000000E+00  0.00000000E+00  0.00000000E+00
  0.00000000E+00  0.00000000E+00  0.00000000E+00
  0.00000000E+00  0.00000000E+00  0.00000000E+00
  0.00000000E+00  0.00000000E+00  0.00000000E+00
  0.00000000E+00  0.00000000E+00  0.00000000E+00
  0.00000000E+00  0.00000000E+00  0.00000000E+00
  0.00000000E+00  0.00000000E+00  0.00000000E+00
  0.00000000E+00  0.00000000E+00  0.00000000E+00
  0.00000000E+00  0.00000000E+00  0.00000000E+00
  0.00000000E+00  0.00000000E+00  0.00000000E+00
  0.00000000E+00  0.00000000E+00  0.00000000E+00
  0.00000000E+00  0.00000000E+00  0.00000000E+00
  0.00000000E+00  0.00000000E+00  0.00000000E+00
  0.00000000E+00  0.00000000E+00  0.00000000E+00
  0.00000000E+00  0.00000000E+00  0.00000000E+00
  0.00000000E+00  0.00000000E+00  0.00000000E+00
  0.00000000E+00  0.00000000E+00  0.00000000E+00
  0.00000000E+00  0.00000000E+00  0.00000000E+00
  0.00000000E+00  0.00000000E+00  0.00000000E+00
  0.00000000E+00  0.00000000E+00  0.00000000E+00
  0.00000000E+00  0.00000000E+00  0.00000000E+00
  0.00000000E+00  0.00000000E+00  0.00000000E+00
  0.00000000E+00  0.00000000E+00  0.00000000E+00
  0.00000000E+00  0.00000000E+00  0.00000000E+00
  0.00000000E+00  0.00000000E+00  0.00000000E+00
  0.00000000E+00  0.00000000E+00  0.00000000E+00
  0.00000000E+00  0.00000000E+00  0.00000000E+00
  0.00000000E+00  0.00000000E+00  0.00000000E+00
  0.00000000E+00  0.00000000E+00  0.00000000E+00
  0.00000000E+00  0.00000000E+00  0.00000000E+00
  0.00000000E+00  0.00000000E+00  0.00000000E+00
  0.00000000E+00  0.00000000E+00  0.00000000E+00
  0.00000000E+00  0.00000000E+00  0.00000000E+00
  0.00000000E+00  0.00000000E+00  0.00000000E+00
  0.00000000E+00  0.00000000E+00  0.00000000E+00
  0.00000000E+00  0.00000000E+00  0.00000000E+00
  0.00000000E+00  0.00000000E+00  0.00000000E+00
  0.00000000E+00  0.00000000E+00  0.00000000E+00
  0.00000000E+00  0.00000000E+00  0.00000000E+00
  0.00000000E+00  0.00000000E+00  0.00000000E+00
  0.00000000E+00  0.00000000E+00  0.00000000E+00
  0.00000000E+00  0.00000000E+00  0.00000000E+00
  0.00000000E+00  0.00000000E+00  0.00000000E+00
  0.00000000E+00  0.00000000E+00  0.00000000E+00
  0.00000000E+00  0.00000000E+00  0.00000000E+00
  0.00000000E+00  0.00000000E+00  0.00000000E+00
  0.00000000E+00  0.00000000E+00  0.00000000E+00
  0.00000000E+00  0.00000000E+00  0.00000000E+00
  0.00000000E+00  0.00000000E+00  0.00000000E+00
  0.00000000E+00  0.00000000E+00  0.00000000E+00
  0.00000000E+00  0.00000000E+00  0.00000000E+00
  0.00000000E+00  0.00000000E+00  0.00000000E+00
  0.00000000E+00  0.00000000E+00  0.00000000E+00
  0.00000000E+00  0.00000000E+00  0.00000000E+00
  0.00000000E+00  0.00000000E+00  0.00000000E+00
  0.00000000E+00  0.00000000E+00  0.00000000E+00
  0.00000000E+00  0.00000000E+00  0.00000000E+00
  0.00000000E+00  0.00000000E+00  0.00000000E+00
  0.00000000E+00  0.00000000E+00  0.00000000E+00
  0.00000000E+00  0.00000000E+00  0.00000000E+00
  0.00000000E+00  0.00000000E+00  0.00000000E+00
  0.00000000E+00  0.00000000E+00  0.00000000E+00
  0.00000000E+00  0.00000000E+00  0.00000000E+00
  0.00000000E+00  0.00000000E+00  0.00000000E+00
  0.00000000E+00  0.00000000E+00  0.00000000E+00
  0.00000000E+00  0.00000000E+00  0.00000000E+00
  0.00000000E+00  0.00000000E+00  0.00000000E+00
  0.00000000E+00  0.00000000E+00  0.00000000E+00
  0.00000000E+00  0.00000000E+00  0.00000000E+00
  0.00000000E+00  0.00000000E+00  0.00000000E+00
  0.00000000E+00  0.00000000E+00  0.00000000E+00
  0.00000000E+00  0.00000000E+00  0.00000000E+00
  0.00000000E+00  0.00000000E+00  0.00000000E+00
  0.00000000E+00  0.00000000E+00  0.00000000E+00
  0.00000000E+00  0.00000000E+00  0.00000000E+00
  0.00000000E+00  0.00000000E+00  0.00000000E+00
  0.00000000E+00  0.00000000E+00  0.00000000E+00
  0.00000000E+00  0.00000000E+00  0.00000000E+00
  0.00000000E+00  0.00000000E+00  0.00000000E+00
  0.00000000E+00  0.00000000E+00  0.00000000E+00
  0.00000000E+00  0.00000000E+00  0.00000000E+00
  0.00000000E+00  0.00000000E+00  0.00000000E+00
  0.00000000E+00  0.00000000E+00  0.00000000E+00
