Ir31 O64                                
   1.00000000000000     
    10.1023775699999998    0.0000000000000000    0.0000000000000006
     0.0838353739394686   10.2423266615791402    0.0000000000000006
     0.0000000000000000    0.0000000000000000   28.6847121700000010
   Ir   O 
    31    64
Selective dynamics
Direct
  0.6496150899999975  0.6637459000000021  0.3611111100000031   F   F   F
  0.8503849100000025  0.8362540999999979  0.3055555600000019   F   F   F
  0.6654679099999967  0.3524508100000006  0.3055555600000019   F   F   F
  0.8345320900000033  0.1475491899999994  0.3611111100000031   F   F   F
  0.1496150899999975  0.1637459000000021  0.3055555600000019   F   F   F
  0.3503849100000025  0.3362540999999979  0.3611111100000031   F   F   F
  0.1654679099999967  0.8524508100000006  0.3611111100000031   F   F   F
  0.3345320900000033  0.6475491899999994  0.3055555600000019   F   F   F
  0.6496150899999975  0.6637459000000021  0.4722222199999990   F   F   F
  0.8503849100000025  0.8362540999999979  0.4166666699999979   F   F   F
  0.6654679099999967  0.3524508100000006  0.4166666699999979   F   F   F
  0.8345320900000033  0.1475491899999994  0.4722222199999990   F   F   F
  0.1496150899999975  0.1637459000000021  0.4166666699999979   F   F   F
  0.3503849100000025  0.3362540999999979  0.4722222199999990   F   F   F
  0.1654679099999967  0.8524508100000006  0.4722222199999990   F   F   F
  0.3345320900000033  0.6475491899999994  0.4166666699999979   F   F   F
  0.6469381538610732  0.6622565771548415  0.5846976044313041   T   T   T
  0.8485191364353784  0.8369640769339480  0.5285027620153593   T   T   T
  0.6659754154914901  0.3523376888855013  0.5277792136589803   T   T   T
  0.8353134177387950  0.1479020855087721  0.5820389706464182   T   T   T
  0.1507734060468174  0.1645408533190087  0.5285434802173264   T   T   T
  0.3515289557610797  0.3378803471788983  0.5821055846849544   T   T   T
  0.1632402969867275  0.8553677192422883  0.5816682081060903   T   T   T
  0.3333706016389848  0.6477532698379755  0.5281559769537473   T   T   T
  0.8338669756900655  0.8270657051144461  0.6424122906321937   T   T   T
  0.6676355474950079  0.3576730416781150  0.6404752709016129   T   T   T
  0.8360642091549298  0.1380577018361393  0.6881327423880558   T   T   T
  0.1561634850753509  0.1654716507507360  0.6424347038288545   T   T   T
  0.3597345874581455  0.3449997525230605  0.6890849161866390   T   T   T
  0.1507428179378699  0.8608771907025879  0.6882241658028942   T   T   T
  0.3376635147260109  0.6591479923403377  0.6423362452305585   T   T   T
  0.6586959600000029  0.5445098000000002  0.3055555600000019   F   F   F
  0.8413040399999971  0.9554901999999998  0.3611111100000031   F   F   F
  0.6567023200000008  0.7894422399999996  0.3055555600000019   F   F   F
  0.8432976799999992  0.7105577600000004  0.3611111100000031   F   F   F
  0.4551275700000019  0.6518496099999993  0.3611111100000031   F   F   F
  0.0448724299999981  0.8481503900000007  0.3055555600000019   F   F   F
  0.7927831800000007  0.3409499799999978  0.3611111100000031   F   F   F
  0.7072168199999993  0.1590500200000022  0.3055555600000019   F   F   F
  0.1586959600000029  0.0445098000000002  0.3611111100000031   F   F   F
  0.3413040399999971  0.4554901999999998  0.3055555600000019   F   F   F
  0.1567023200000008  0.2894422399999996  0.3611111100000031   F   F   F
  0.3432976799999992  0.2105577600000004  0.3055555600000019   F   F   F
  0.9551275700000019  0.1518496099999993  0.3055555600000019   F   F   F
  0.5448724299999981  0.3481503900000007  0.3611111100000031   F   F   F
  0.2927831800000007  0.8409499799999978  0.3055555600000019   F   F   F
  0.2072168199999993  0.6590500200000022  0.3611111100000031   F   F   F
  0.6586959600000029  0.5445098000000002  0.4166666699999979   F   F   F
  0.8413040399999971  0.9554901999999998  0.4722222199999990   F   F   F
  0.6567023200000008  0.7894422399999996  0.4166666699999979   F   F   F
  0.8432976799999992  0.7105577600000004  0.4722222199999990   F   F   F
  0.4551275700000019  0.6518496099999993  0.4722222199999990   F   F   F
  0.0448724299999981  0.8481503900000007  0.4166666699999979   F   F   F
  0.7927831800000007  0.3409499799999978  0.4722222199999990   F   F   F
  0.7072168199999993  0.1590500200000022  0.4166666699999979   F   F   F
  0.1586959600000029  0.0445098000000002  0.4722222199999990   F   F   F
  0.3413040399999971  0.4554901999999998  0.4166666699999979   F   F   F
  0.1567023200000008  0.2894422399999996  0.4722222199999990   F   F   F
  0.3432976799999992  0.2105577600000004  0.4166666699999979   F   F   F
  0.9551275700000019  0.1518496099999993  0.4166666699999979   F   F   F
  0.5448724299999981  0.3481503900000007  0.4722222199999990   F   F   F
  0.2927831800000007  0.8409499799999978  0.4166666699999979   F   F   F
  0.2072168199999993  0.6590500200000022  0.4722222199999990   F   F   F
  0.6564820574439084  0.5436091015222450  0.5279304933327200   T   T   T
  0.8371346662618617  0.9544759105151854  0.5853692135587416   T   T   T
  0.6565652108436174  0.7872414011634490  0.5283956035583506   T   T   T
  0.8406348222162447  0.7109713377869491  0.5835880036803904   T   T   T
  0.4542373520279979  0.6530387980284278  0.5833358014885368   T   T   T
  0.0436959731660227  0.8486231569996761  0.5275807964044407   T   T   T
  0.7934166786812009  0.3398641818282337  0.5826953436557866   T   T   T
  0.7062675599749206  0.1575002281467354  0.5277028164523007   T   T   T
  0.1566407945333614  0.0469821642605085  0.5840188526398903   T   T   T
  0.3401888488853644  0.4555459101637318  0.5275306089694964   T   T   T
  0.1588840442494180  0.2893853762359587  0.5840947363138126   T   T   T
  0.3453796099195247  0.2090887225125878  0.5278241714364826   T   T   T
  0.9559077442057051  0.1511321089190218  0.5276264583394179   T   T   T
  0.5462964072026145  0.3537384313893803  0.5835855863139039   T   T   T
  0.2939459764624200  0.8422860838315095  0.5276089378922345   T   T   T
  0.2081495739018868  0.6641028939991268  0.5839773565670708   T   T   T
  0.6763179794619691  0.5423623009298626  0.6357609330757455   T   T   T
  0.8342272474776331  0.9573107996260196  0.6955772191073778   T   T   T
  0.6512426242205035  0.8037322525030834  0.6321786384329937   T   T   T
  0.8743235281966296  0.7050953908689364  0.6846248416879027   T   T   T
  0.4741694499442179  0.6674080838143156  0.6826406825455369   T   T   T
  0.0351910137510801  0.8543141845782214  0.6363819745431024   T   T   T
  0.7912530926226115  0.3178798678605525  0.6931429815861910   T   T   T
  0.7046015419671946  0.1605370746465685  0.6365504608998473   T   T   T
  0.1461110149399340  0.0414066463749193  0.6963771852874306   T   T   T
  0.3388145464191185  0.4649708433510267  0.6377398580517297   T   T   T
  0.1820073902149587  0.2878843882529787  0.6949579118463294   T   T   T
  0.3493774911971175  0.2097672796937910  0.6377845222614272   T   T   T
  0.9606060887173137  0.1550869567245252  0.6382311662367289   T   T   T
  0.5428521751513324  0.3595594192674670  0.6930607148417924   T   T   T
  0.2909327060299677  0.8499037651106944  0.6381514531723567   T   T   T
  0.2104577275233600  0.6847018368050880  0.6949100151017895   T   T   T
 
  0.00000000E+00  0.00000000E+00  0.00000000E+00
  0.00000000E+00  0.00000000E+00  0.00000000E+00
  0.00000000E+00  0.00000000E+00  0.00000000E+00
  0.00000000E+00  0.00000000E+00  0.00000000E+00
  0.00000000E+00  0.00000000E+00  0.00000000E+00
  0.00000000E+00  0.00000000E+00  0.00000000E+00
  0.00000000E+00  0.00000000E+00  0.00000000E+00
  0.00000000E+00  0.00000000E+00  0.00000000E+00
  0.00000000E+00  0.00000000E+00  0.00000000E+00
  0.00000000E+00  0.00000000E+00  0.00000000E+00
  0.00000000E+00  0.00000000E+00  0.00000000E+00
  0.00000000E+00  0.00000000E+00  0.00000000E+00
  0.00000000E+00  0.00000000E+00  0.00000000E+00
  0.00000000E+00  0.00000000E+00  0.00000000E+00
  0.00000000E+00  0.00000000E+00  0.00000000E+00
  0.00000000E+00  0.00000000E+00  0.00000000E+00
  0.00000000E+00  0.00000000E+00  0.00000000E+00
  0.00000000E+00  0.00000000E+00  0.00000000E+00
  0.00000000E+00  0.00000000E+00  0.00000000E+00
  0.00000000E+00  0.00000000E+00  0.00000000E+00
  0.00000000E+00  0.00000000E+00  0.00000000E+00
  0.00000000E+00  0.00000000E+00  0.00000000E+00
  0.00000000E+00  0.00000000E+00  0.00000000E+00
  0.00000000E+00  0.00000000E+00  0.00000000E+00
  0.00000000E+00  0.00000000E+00  0.00000000E+00
  0.00000000E+00  0.00000000E+00  0.00000000E+00
  0.00000000E+00  0.00000000E+00  0.00000000E+00
  0.00000000E+00  0.00000000E+00  0.00000000E+00
  0.00000000E+00  0.00000000E+00  0.00000000E+00
  0.00000000E+00  0.00000000E+00  0.00000000E+00
  0.00000000E+00  0.00000000E+00  0.00000000E+00
  0.00000000E+00  0.00000000E+00  0.00000000E+00
  0.00000000E+00  0.00000000E+00  0.00000000E+00
  0.00000000E+00  0.00000000E+00  0.00000000E+00
  0.00000000E+00  0.00000000E+00  0.00000000E+00
  0.00000000E+00  0.00000000E+00  0.00000000E+00
  0.00000000E+00  0.00000000E+00  0.00000000E+00
  0.00000000E+00  0.00000000E+00  0.00000000E+00
  0.00000000E+00  0.00000000E+00  0.00000000E+00
  0.00000000E+00  0.00000000E+00  0.00000000E+00
  0.00000000E+00  0.00000000E+00  0.00000000E+00
  0.00000000E+00  0.00000000E+00  0.00000000E+00
  0.00000000E+00  0.00000000E+00  0.00000000E+00
  0.00000000E+00  0.00000000E+00  0.00000000E+00
  0.00000000E+00  0.00000000E+00  0.00000000E+00
  0.00000000E+00  0.00000000E+00  0.00000000E+00
  0.00000000E+00  0.00000000E+00  0.00000000E+00
  0.00000000E+00  0.00000000E+00  0.00000000E+00
  0.00000000E+00  0.00000000E+00  0.00000000E+00
  0.00000000E+00  0.00000000E+00  0.00000000E+00
  0.00000000E+00  0.00000000E+00  0.00000000E+00
  0.00000000E+00  0.00000000E+00  0.00000000E+00
  0.00000000E+00  0.00000000E+00  0.00000000E+00
  0.00000000E+00  0.00000000E+00  0.00000000E+00
  0.00000000E+00  0.00000000E+00  0.00000000E+00
  0.00000000E+00  0.00000000E+00  0.00000000E+00
  0.00000000E+00  0.00000000E+00  0.00000000E+00
  0.00000000E+00  0.00000000E+00  0.00000000E+00
  0.00000000E+00  0.00000000E+00  0.00000000E+00
  0.00000000E+00  0.00000000E+00  0.00000000E+00
  0.00000000E+00  0.00000000E+00  0.00000000E+00
  0.00000000E+00  0.00000000E+00  0.00000000E+00
  0.00000000E+00  0.00000000E+00  0.00000000E+00
  0.00000000E+00  0.00000000E+00  0.00000000E+00
  0.00000000E+00  0.00000000E+00  0.00000000E+00
  0.00000000E+00  0.00000000E+00  0.00000000E+00
  0.00000000E+00  0.00000000E+00  0.00000000E+00
  0.00000000E+00  0.00000000E+00  0.00000000E+00
  0.00000000E+00  0.00000000E+00  0.00000000E+00
  0.00000000E+00  0.00000000E+00  0.00000000E+00
  0.00000000E+00  0.00000000E+00  0.00000000E+00
  0.00000000E+00  0.00000000E+00  0.00000000E+00
  0.00000000E+00  0.00000000E+00  0.00000000E+00
  0.00000000E+00  0.00000000E+00  0.00000000E+00
  0.00000000E+00  0.00000000E+00  0.00000000E+00
  0.00000000E+00  0.00000000E+00  0.00000000E+00
  0.00000000E+00  0.00000000E+00  0.00000000E+00
  0.00000000E+00  0.00000000E+00  0.00000000E+00
  0.00000000E+00  0.00000000E+00  0.00000000E+00
  0.00000000E+00  0.00000000E+00  0.00000000E+00
  0.00000000E+00  0.00000000E+00  0.00000000E+00
  0.00000000E+00  0.00000000E+00  0.00000000E+00
  0.00000000E+00  0.00000000E+00  0.00000000E+00
  0.00000000E+00  0.00000000E+00  0.00000000E+00
  0.00000000E+00  0.00000000E+00  0.00000000E+00
  0.00000000E+00  0.00000000E+00  0.00000000E+00
  0.00000000E+00  0.00000000E+00  0.00000000E+00
  0.00000000E+00  0.00000000E+00  0.00000000E+00
  0.00000000E+00  0.00000000E+00  0.00000000E+00
  0.00000000E+00  0.00000000E+00  0.00000000E+00
  0.00000000E+00  0.00000000E+00  0.00000000E+00
  0.00000000E+00  0.00000000E+00  0.00000000E+00
  0.00000000E+00  0.00000000E+00  0.00000000E+00
  0.00000000E+00  0.00000000E+00  0.00000000E+00
  0.00000000E+00  0.00000000E+00  0.00000000E+00
