 H Ir  O                                
   1.00000000000000     
     6.2927695945796778    0.0000000000000000    0.3302847473392688
     0.0000000000000016   10.0578580399999993    0.0000000000000006
     0.0000000000000000    0.0000000000000000   30.0559119800000012
   H    Ir   O 
     1    20    40
Selective dynamics
Direct
  0.5515881837123079  0.2702945727599869  0.6935935735099439   T   T   T
  0.2903921520113614  0.4714775036885263  0.6649039693085619   T   T   T
  0.8054007689577665  0.4564325303659635  0.6556536688391543   T   T   T
  0.3143562547136315  0.0417354948447862  0.6652201139281904   T   T   T
  0.8131342488720947  0.0409854807151025  0.6656373003428078   T   T   T
  0.0178319811384159  0.4894981829934497  0.5784307290204184   T   T   T
  0.5188247655415663  0.4864319963479802  0.5702417157652897   T   T   T
  0.0841119871737116  0.0105771690257581  0.5718179251385428   T   T   T
  0.5827807191337208  0.0079510432855933  0.5769044994578471   T   T   T
  0.3181818199999995  0.5000000000000000  0.4930069929605452   F   F   F
  0.8181818199999995  0.5000000000000000  0.4820179819613486   F   F   F
  0.3181818199999995  0.0000000000000000  0.4930069929605452   F   F   F
  0.8181818199999995  0.0000000000000000  0.4820179819613486   F   F   F
  0.0454545449999983  0.5000000000000000  0.4080919090100608   F   F   F
  0.5454545449999983  0.5000000000000000  0.3971028980108571   F   F   F
  0.0454545449999983  0.0000000000000000  0.4080919090100608   F   F   F
  0.5454545449999983  0.0000000000000000  0.3971028980108571   F   F   F
  0.2727272750000012  0.5000000000000000  0.3121878139504872   F   F   F
  0.7727272750000012  0.5000000000000000  0.3011988029512835   F   F   F
  0.2727272750000012  0.0000000000000000  0.3121878139504872   F   F   F
  0.7727272750000012  0.0000000000000000  0.3011988029512835   F   F   F
  0.0471905563085490  0.5802410374960396  0.6396036803193789   T   T   T
  0.5383002814120218  0.5596136817399145  0.6317275355497335   T   T   T
  0.0711476003041110  0.9416778394299702  0.6357404351007955   T   T   T
  0.5728212988270257  0.9341015814006232  0.6402588152726112   T   T   T
  0.0253220870814275  0.3962603582797327  0.6916393916774624   T   T   T
  0.5500605382986493  0.3755018945836134  0.6881192378015127   T   T   T
  0.0573513775193509  0.1082106795106665  0.6925190370537357   T   T   T
  0.5549980887350420  0.1257057940479128  0.6950174088234001   T   T   T
  0.2660676109120702  0.5986507374674415  0.5524666281200564   T   T   T
  0.7821539172872698  0.5806071495276697  0.5436907299106225   T   T   T
  0.3460919491269001  0.9014584399002169  0.5514107130506348   T   T   T
  0.8313668593620808  0.9173859034628721  0.5442229587640660   T   T   T
  0.2671767630601348  0.3927817334400074  0.6040818994038168   T   T   T
  0.7498232315455695  0.3772612009549436  0.5952213715354208   T   T   T
  0.3256092075146270  0.1069515251056867  0.6023179037978488   T   T   T
  0.8304352706682548  0.1054917116855246  0.6021460371436068   T   T   T
  0.0606060599999978  0.5897138999999996  0.4683649686800848   F   F   F
  0.5606060599999978  0.5897138999999996  0.4573759576808811   F   F   F
  0.0606060599999978  0.9102861000000004  0.4683649686800848   F   F   F
  0.5606060599999978  0.9102861000000004  0.4573759576808811   F   F   F
  0.0477244895398647  0.4042429834086004  0.5185088674842091   T   T   T
  0.5674132151428132  0.3922805855941759  0.5098596866411216   T   T   T
  0.0575470023930923  0.1089742602816158  0.5131844814172032   T   T   T
  0.5754731066497532  0.0913309348479853  0.5155991005577654   T   T   T
  0.2878787900000006  0.5897138999999996  0.3724608736205042   F   F   F
  0.7878787900000006  0.5897138999999996  0.3614718626213005   F   F   F
  0.2878787900000006  0.9102861000000004  0.3724608736205042   F   F   F
  0.7878787900000006  0.9102861000000004  0.3614718626213005   F   F   F
  0.3030303050000001  0.4102861000000004  0.4327339332905282   F   F   F
  0.8030303050000001  0.4102861000000004  0.4217449222913245   F   F   F
  0.3030303050000001  0.0897138999999996  0.4327339332905282   F   F   F
  0.8030303050000001  0.0897138999999996  0.4217449222913245   F   F   F
  0.0151515149999994  0.5897138999999996  0.2875457896700198   F   F   F
  0.5151515149999994  0.5897138999999996  0.2765567786708161   F   F   F
  0.0151515149999994  0.9102861000000004  0.2875457896700198   F   F   F
  0.5151515149999994  0.9102861000000004  0.2765567786708161   F   F   F
  0.0303030299999989  0.4102861000000004  0.3478188493400438   F   F   F
  0.5303030299999989  0.4102861000000004  0.3368298383408401   F   F   F
  0.0303030299999989  0.0897138999999996  0.3478188493400438   F   F   F
  0.5303030299999989  0.0897138999999996  0.3368298383408401   F   F   F
 
  0.00000000E+00  0.00000000E+00  0.00000000E+00
  0.00000000E+00  0.00000000E+00  0.00000000E+00
  0.00000000E+00  0.00000000E+00  0.00000000E+00
  0.00000000E+00  0.00000000E+00  0.00000000E+00
  0.00000000E+00  0.00000000E+00  0.00000000E+00
  0.00000000E+00  0.00000000E+00  0.00000000E+00
  0.00000000E+00  0.00000000E+00  0.00000000E+00
  0.00000000E+00  0.00000000E+00  0.00000000E+00
  0.00000000E+00  0.00000000E+00  0.00000000E+00
  0.00000000E+00  0.00000000E+00  0.00000000E+00
  0.00000000E+00  0.00000000E+00  0.00000000E+00
  0.00000000E+00  0.00000000E+00  0.00000000E+00
  0.00000000E+00  0.00000000E+00  0.00000000E+00
  0.00000000E+00  0.00000000E+00  0.00000000E+00
  0.00000000E+00  0.00000000E+00  0.00000000E+00
  0.00000000E+00  0.00000000E+00  0.00000000E+00
  0.00000000E+00  0.00000000E+00  0.00000000E+00
  0.00000000E+00  0.00000000E+00  0.00000000E+00
  0.00000000E+00  0.00000000E+00  0.00000000E+00
  0.00000000E+00  0.00000000E+00  0.00000000E+00
  0.00000000E+00  0.00000000E+00  0.00000000E+00
  0.00000000E+00  0.00000000E+00  0.00000000E+00
  0.00000000E+00  0.00000000E+00  0.00000000E+00
  0.00000000E+00  0.00000000E+00  0.00000000E+00
  0.00000000E+00  0.00000000E+00  0.00000000E+00
  0.00000000E+00  0.00000000E+00  0.00000000E+00
  0.00000000E+00  0.00000000E+00  0.00000000E+00
  0.00000000E+00  0.00000000E+00  0.00000000E+00
  0.00000000E+00  0.00000000E+00  0.00000000E+00
  0.00000000E+00  0.00000000E+00  0.00000000E+00
  0.00000000E+00  0.00000000E+00  0.00000000E+00
  0.00000000E+00  0.00000000E+00  0.00000000E+00
  0.00000000E+00  0.00000000E+00  0.00000000E+00
  0.00000000E+00  0.00000000E+00  0.00000000E+00
  0.00000000E+00  0.00000000E+00  0.00000000E+00
  0.00000000E+00  0.00000000E+00  0.00000000E+00
  0.00000000E+00  0.00000000E+00  0.00000000E+00
  0.00000000E+00  0.00000000E+00  0.00000000E+00
  0.00000000E+00  0.00000000E+00  0.00000000E+00
  0.00000000E+00  0.00000000E+00  0.00000000E+00
  0.00000000E+00  0.00000000E+00  0.00000000E+00
  0.00000000E+00  0.00000000E+00  0.00000000E+00
  0.00000000E+00  0.00000000E+00  0.00000000E+00
  0.00000000E+00  0.00000000E+00  0.00000000E+00
  0.00000000E+00  0.00000000E+00  0.00000000E+00
  0.00000000E+00  0.00000000E+00  0.00000000E+00
  0.00000000E+00  0.00000000E+00  0.00000000E+00
  0.00000000E+00  0.00000000E+00  0.00000000E+00
  0.00000000E+00  0.00000000E+00  0.00000000E+00
  0.00000000E+00  0.00000000E+00  0.00000000E+00
  0.00000000E+00  0.00000000E+00  0.00000000E+00
  0.00000000E+00  0.00000000E+00  0.00000000E+00
  0.00000000E+00  0.00000000E+00  0.00000000E+00
  0.00000000E+00  0.00000000E+00  0.00000000E+00
  0.00000000E+00  0.00000000E+00  0.00000000E+00
  0.00000000E+00  0.00000000E+00  0.00000000E+00
  0.00000000E+00  0.00000000E+00  0.00000000E+00
  0.00000000E+00  0.00000000E+00  0.00000000E+00
  0.00000000E+00  0.00000000E+00  0.00000000E+00
  0.00000000E+00  0.00000000E+00  0.00000000E+00
  0.00000000E+00  0.00000000E+00  0.00000000E+00
