Ir20 O40                                
   1.00000000000000     
     6.2927695945796778    0.0000000000000000    0.3302847473392688
     0.0000000000000016   10.0578580399999993    0.0000000000000006
     0.0000000000000000    0.0000000000000000   30.0559119800000012
   Ir   O 
    20    40
Selective dynamics
Direct
  0.3111773795447246  0.4880491597969429  0.6670721274013635   T   T   T
  0.8093970340667926  0.4905657702644440  0.6681382777537224   T   T   T
  0.3111773795447246  0.0119508402030571  0.6670721274013635   T   T   T
  0.8093970340667926  0.0094342297355560  0.6681382777537223   T   T   T
  0.0783562891908477  0.4953191865099703  0.5729519996891014   T   T   T
  0.5788340076773819  0.4975181028667736  0.5770592934437606   T   T   T
  0.0783562891908477  0.0046808134900299  0.5729519996891014   T   T   T
  0.5788340076773819  0.0024818971332263  0.5770592934437606   T   T   T
  0.3181818199999995  0.5000000000000000  0.4930069929605452   F   F   F
  0.8181818199999995  0.5000000000000000  0.4820179819613486   F   F   F
  0.3181818199999995  0.0000000000000000  0.4930069929605452   F   F   F
  0.8181818199999995  0.0000000000000000  0.4820179819613486   F   F   F
  0.0454545449999983  0.5000000000000000  0.4080919090100608   F   F   F
  0.5454545449999983  0.5000000000000000  0.3971028980108571   F   F   F
  0.0454545449999983  0.0000000000000000  0.4080919090100608   F   F   F
  0.5454545449999983  0.0000000000000000  0.3971028980108571   F   F   F
  0.2727272750000012  0.5000000000000000  0.3121878139504872   F   F   F
  0.7727272750000012  0.5000000000000000  0.3011988029512835   F   F   F
  0.2727272750000012  0.0000000000000000  0.3121878139504872   F   F   F
  0.7727272750000012  0.0000000000000000  0.3011988029512835   F   F   F
  0.0684548113018483  0.5765955345498589  0.6348650453922888   T   T   T
  0.5698802602121599  0.5835827442964960  0.6379591689412459   T   T   T
  0.0684548113018483  0.9234044654501411  0.6348650453922888   T   T   T
  0.5698802602121599  0.9164172557035040  0.6379591689412459   T   T   T
  0.0536483653426107  0.4304900709924059  0.6975198961704283   T   T   T
  0.5507085970477822  0.4313212375468640  0.6996688045160191   T   T   T
  0.0536483653426107  0.0695099290075941  0.6975198961704283   T   T   T
  0.5507085970477822  0.0686787624531361  0.6996688045160191   T   T   T
  0.3428407467691444  0.6005588314016348  0.5507323073407547   T   T   T
  0.8272592156538728  0.5849865133226050  0.5437314902933473   T   T   T
  0.3428407467691443  0.8994411685983652  0.5507323073407547   T   T   T
  0.8272592156538728  0.9150134866773950  0.5437314902933473   T   T   T
  0.3196941941806830  0.4053360009286114  0.6055979947472714   T   T   T
  0.8252239903165066  0.4063408716599384  0.6052033945483474   T   T   T
  0.3196941941806830  0.0946639990713885  0.6055979947472714   T   T   T
  0.8252239903165066  0.0936591283400615  0.6052033945483474   T   T   T
  0.0606060599999978  0.5897138999999996  0.4683649686800848   F   F   F
  0.5606060599999978  0.5897138999999996  0.4573759576808811   F   F   F
  0.0606060599999978  0.9102861000000004  0.4683649686800848   F   F   F
  0.5606060599999978  0.9102861000000004  0.4573759576808811   F   F   F
  0.0562591442771826  0.3937491803255634  0.5144287202989785   T   T   T
  0.5750020413396787  0.4079847347907853  0.5160278137327338   T   T   T
  0.0562591442771826  0.1062508196744367  0.5144287202989785   T   T   T
  0.5750020413396787  0.0920152652092145  0.5160278137327338   T   T   T
  0.2878787900000006  0.5897138999999996  0.3724608736205042   F   F   F
  0.7878787900000006  0.5897138999999996  0.3614718626213005   F   F   F
  0.2878787900000006  0.9102861000000004  0.3724608736205042   F   F   F
  0.7878787900000006  0.9102861000000004  0.3614718626213005   F   F   F
  0.3030303050000001  0.4102861000000004  0.4327339332905282   F   F   F
  0.8030303050000001  0.4102861000000004  0.4217449222913245   F   F   F
  0.3030303050000001  0.0897138999999996  0.4327339332905282   F   F   F
  0.8030303050000001  0.0897138999999996  0.4217449222913245   F   F   F
  0.0151515149999994  0.5897138999999996  0.2875457896700198   F   F   F
  0.5151515149999994  0.5897138999999996  0.2765567786708161   F   F   F
  0.0151515149999994  0.9102861000000004  0.2875457896700198   F   F   F
  0.5151515149999994  0.9102861000000004  0.2765567786708161   F   F   F
  0.0303030299999989  0.4102861000000004  0.3478188493400438   F   F   F
  0.5303030299999989  0.4102861000000004  0.3368298383408401   F   F   F
  0.0303030299999989  0.0897138999999996  0.3478188493400438   F   F   F
  0.5303030299999989  0.0897138999999996  0.3368298383408401   F   F   F
 
  0.00000000E+00  0.00000000E+00  0.00000000E+00
  0.00000000E+00  0.00000000E+00  0.00000000E+00
  0.00000000E+00  0.00000000E+00  0.00000000E+00
  0.00000000E+00  0.00000000E+00  0.00000000E+00
  0.00000000E+00  0.00000000E+00  0.00000000E+00
  0.00000000E+00  0.00000000E+00  0.00000000E+00
  0.00000000E+00  0.00000000E+00  0.00000000E+00
  0.00000000E+00  0.00000000E+00  0.00000000E+00
  0.00000000E+00  0.00000000E+00  0.00000000E+00
  0.00000000E+00  0.00000000E+00  0.00000000E+00
  0.00000000E+00  0.00000000E+00  0.00000000E+00
  0.00000000E+00  0.00000000E+00  0.00000000E+00
  0.00000000E+00  0.00000000E+00  0.00000000E+00
  0.00000000E+00  0.00000000E+00  0.00000000E+00
  0.00000000E+00  0.00000000E+00  0.00000000E+00
  0.00000000E+00  0.00000000E+00  0.00000000E+00
  0.00000000E+00  0.00000000E+00  0.00000000E+00
  0.00000000E+00  0.00000000E+00  0.00000000E+00
  0.00000000E+00  0.00000000E+00  0.00000000E+00
  0.00000000E+00  0.00000000E+00  0.00000000E+00
  0.00000000E+00  0.00000000E+00  0.00000000E+00
  0.00000000E+00  0.00000000E+00  0.00000000E+00
  0.00000000E+00  0.00000000E+00  0.00000000E+00
  0.00000000E+00  0.00000000E+00  0.00000000E+00
  0.00000000E+00  0.00000000E+00  0.00000000E+00
  0.00000000E+00  0.00000000E+00  0.00000000E+00
  0.00000000E+00  0.00000000E+00  0.00000000E+00
  0.00000000E+00  0.00000000E+00  0.00000000E+00
  0.00000000E+00  0.00000000E+00  0.00000000E+00
  0.00000000E+00  0.00000000E+00  0.00000000E+00
  0.00000000E+00  0.00000000E+00  0.00000000E+00
  0.00000000E+00  0.00000000E+00  0.00000000E+00
  0.00000000E+00  0.00000000E+00  0.00000000E+00
  0.00000000E+00  0.00000000E+00  0.00000000E+00
  0.00000000E+00  0.00000000E+00  0.00000000E+00
  0.00000000E+00  0.00000000E+00  0.00000000E+00
  0.00000000E+00  0.00000000E+00  0.00000000E+00
  0.00000000E+00  0.00000000E+00  0.00000000E+00
  0.00000000E+00  0.00000000E+00  0.00000000E+00
  0.00000000E+00  0.00000000E+00  0.00000000E+00
  0.00000000E+00  0.00000000E+00  0.00000000E+00
  0.00000000E+00  0.00000000E+00  0.00000000E+00
  0.00000000E+00  0.00000000E+00  0.00000000E+00
  0.00000000E+00  0.00000000E+00  0.00000000E+00
  0.00000000E+00  0.00000000E+00  0.00000000E+00
  0.00000000E+00  0.00000000E+00  0.00000000E+00
  0.00000000E+00  0.00000000E+00  0.00000000E+00
  0.00000000E+00  0.00000000E+00  0.00000000E+00
  0.00000000E+00  0.00000000E+00  0.00000000E+00
  0.00000000E+00  0.00000000E+00  0.00000000E+00
  0.00000000E+00  0.00000000E+00  0.00000000E+00
  0.00000000E+00  0.00000000E+00  0.00000000E+00
  0.00000000E+00  0.00000000E+00  0.00000000E+00
  0.00000000E+00  0.00000000E+00  0.00000000E+00
  0.00000000E+00  0.00000000E+00  0.00000000E+00
  0.00000000E+00  0.00000000E+00  0.00000000E+00
  0.00000000E+00  0.00000000E+00  0.00000000E+00
  0.00000000E+00  0.00000000E+00  0.00000000E+00
  0.00000000E+00  0.00000000E+00  0.00000000E+00
  0.00000000E+00  0.00000000E+00  0.00000000E+00
