Ir16 O32                                
   1.00000000000000     
     6.3014313599999996    0.0000000000000000    0.0000000000000004
     3.1507156800000011    5.4571996379639227    0.0000000000000004
     0.0000000000000000    0.0000000000000000   40.2314321400000026
   Ir   O 
    16    32
Selective dynamics
Direct
  0.0000000000000000  0.0000000000000000  0.6875000000000000   T   T   T
  0.5000000000000000  0.5000000000000000  0.6875000000000000   T   T   T
  0.5000000000000000  0.0000000000000000  0.6875000000000000   T   T   T
  0.0000000000000000  0.5000000000000000  0.6875000000000000   T   T   T
  0.0000000000000000  0.0000000000000000  0.5625000000000000   T   T   T
  0.5000000000000000  0.5000000000000000  0.5625000000000000   T   T   T
  0.5000000000000000  0.0000000000000000  0.5625000000000000   T   T   T
  0.0000000000000000  0.5000000000000000  0.5625000000000000   T   T   T
  0.0000000000000000  0.0000000000000000  0.4375000000000000   F   F   F
  0.5000000000000000  0.5000000000000000  0.4375000000000000   F   F   F
  0.5000000000000000  0.0000000000000000  0.4375000000000000   F   F   F
  0.0000000000000000  0.5000000000000000  0.4375000000000000   F   F   F
  0.0000000000000000  0.0000000000000000  0.3125000000000000   F   F   F
  0.5000000000000000  0.5000000000000000  0.3125000000000000   F   F   F
  0.5000000000000000  0.0000000000000000  0.3125000000000000   F   F   F
  0.0000000000000000  0.5000000000000000  0.3125000000000000   F   F   F
  0.6666666666666643  0.6666666666666643  0.7099284800000021   T   T   T
  0.1666666666666643  0.1666666666666643  0.7099284800000021   T   T   T
  0.1666666666666643  0.6666666666666643  0.7099284800000021   T   T   T
  0.6666666666666643  0.1666666666666643  0.7099284800000021   T   T   T
  0.6666666666666643  0.6666666666666643  0.5400715199999979   T   T   T
  0.1666666666666643  0.1666666666666643  0.5400715199999979   T   T   T
  0.1666666666666643  0.6666666666666643  0.5400715199999979   T   T   T
  0.6666666666666643  0.1666666666666643  0.5400715199999979   T   T   T
  0.3333333333333357  0.8333333333333357  0.6650715199999979   T   T   T
  0.8333333333333357  0.3333333333333357  0.6650715199999979   T   T   T
  0.8333333333333357  0.8333333333333357  0.6650715199999979   T   T   T
  0.3333333333333357  0.3333333333333357  0.6650715199999979   T   T   T
  0.3333333333333357  0.8333333333333357  0.5849284800000021   T   T   T
  0.8333333333333357  0.3333333333333357  0.5849284800000021   T   T   T
  0.8333333333333357  0.8333333333333357  0.5849284800000021   T   T   T
  0.3333333333333357  0.3333333333333357  0.5849284800000021   T   T   T
  0.6666666666666643  0.6666666666666643  0.4599284800000021   F   F   F
  0.1666666666666643  0.1666666666666643  0.4599284800000021   F   F   F
  0.1666666666666643  0.6666666666666643  0.4599284800000021   F   F   F
  0.6666666666666643  0.1666666666666643  0.4599284800000021   F   F   F
  0.6666666666666643  0.6666666666666643  0.2900715199999979   F   F   F
  0.1666666666666643  0.1666666666666643  0.2900715199999979   F   F   F
  0.1666666666666643  0.6666666666666643  0.2900715199999979   F   F   F
  0.6666666666666643  0.1666666666666643  0.2900715199999979   F   F   F
  0.3333333333333357  0.8333333333333357  0.4150715199999979   F   F   F
  0.8333333333333357  0.3333333333333357  0.4150715199999979   F   F   F
  0.8333333333333357  0.8333333333333357  0.4150715199999979   F   F   F
  0.3333333333333357  0.3333333333333357  0.4150715199999979   F   F   F
  0.3333333333333357  0.8333333333333357  0.3349284800000021   F   F   F
  0.8333333333333357  0.3333333333333357  0.3349284800000021   F   F   F
  0.8333333333333357  0.8333333333333357  0.3349284800000021   F   F   F
  0.3333333333333357  0.3333333333333357  0.3349284800000021   F   F   F
 
  0.00000000E+00  0.00000000E+00  0.00000000E+00
  0.00000000E+00  0.00000000E+00  0.00000000E+00
  0.00000000E+00  0.00000000E+00  0.00000000E+00
  0.00000000E+00  0.00000000E+00  0.00000000E+00
  0.00000000E+00  0.00000000E+00  0.00000000E+00
  0.00000000E+00  0.00000000E+00  0.00000000E+00
  0.00000000E+00  0.00000000E+00  0.00000000E+00
  0.00000000E+00  0.00000000E+00  0.00000000E+00
  0.00000000E+00  0.00000000E+00  0.00000000E+00
  0.00000000E+00  0.00000000E+00  0.00000000E+00
  0.00000000E+00  0.00000000E+00  0.00000000E+00
  0.00000000E+00  0.00000000E+00  0.00000000E+00
  0.00000000E+00  0.00000000E+00  0.00000000E+00
  0.00000000E+00  0.00000000E+00  0.00000000E+00
  0.00000000E+00  0.00000000E+00  0.00000000E+00
  0.00000000E+00  0.00000000E+00  0.00000000E+00
  0.00000000E+00  0.00000000E+00  0.00000000E+00
  0.00000000E+00  0.00000000E+00  0.00000000E+00
  0.00000000E+00  0.00000000E+00  0.00000000E+00
  0.00000000E+00  0.00000000E+00  0.00000000E+00
  0.00000000E+00  0.00000000E+00  0.00000000E+00
  0.00000000E+00  0.00000000E+00  0.00000000E+00
  0.00000000E+00  0.00000000E+00  0.00000000E+00
  0.00000000E+00  0.00000000E+00  0.00000000E+00
  0.00000000E+00  0.00000000E+00  0.00000000E+00
  0.00000000E+00  0.00000000E+00  0.00000000E+00
  0.00000000E+00  0.00000000E+00  0.00000000E+00
  0.00000000E+00  0.00000000E+00  0.00000000E+00
  0.00000000E+00  0.00000000E+00  0.00000000E+00
  0.00000000E+00  0.00000000E+00  0.00000000E+00
  0.00000000E+00  0.00000000E+00  0.00000000E+00
  0.00000000E+00  0.00000000E+00  0.00000000E+00
  0.00000000E+00  0.00000000E+00  0.00000000E+00
  0.00000000E+00  0.00000000E+00  0.00000000E+00
  0.00000000E+00  0.00000000E+00  0.00000000E+00
  0.00000000E+00  0.00000000E+00  0.00000000E+00
  0.00000000E+00  0.00000000E+00  0.00000000E+00
  0.00000000E+00  0.00000000E+00  0.00000000E+00
  0.00000000E+00  0.00000000E+00  0.00000000E+00
  0.00000000E+00  0.00000000E+00  0.00000000E+00
  0.00000000E+00  0.00000000E+00  0.00000000E+00
  0.00000000E+00  0.00000000E+00  0.00000000E+00
  0.00000000E+00  0.00000000E+00  0.00000000E+00
  0.00000000E+00  0.00000000E+00  0.00000000E+00
  0.00000000E+00  0.00000000E+00  0.00000000E+00
  0.00000000E+00  0.00000000E+00  0.00000000E+00
  0.00000000E+00  0.00000000E+00  0.00000000E+00
  0.00000000E+00  0.00000000E+00  0.00000000E+00
