Ir31 O64                                
   1.00000000000000     
     6.3743804800000001    0.0000000000000000    0.0000000000000004
     0.0000000000000016   10.1020391709426818    0.0826870943907734
     0.0000000000000000    0.0000000000000000   40.9706790400000003
   Ir   O 
    31    64
Selective dynamics
Direct
  0.0000000000000000  0.3503849100000025  0.3340635200000008   F   F   F
  0.5000000000000000  0.3503849100000025  0.3340635200000008   F   F   F
  0.2500000000000000  0.1496150899999975  0.2909364799999992   F   F   F
  0.7500000000000000  0.1496150899999975  0.2909364799999992   F   F   F
  0.2500000000000000  0.3345320900000033  0.4118872999999965   F   F   F
  0.7500000000000000  0.3345320900000033  0.4118872999999965   F   F   F
  0.0000000000000000  0.1654679099999967  0.4631127000000035   F   F   F
  0.5000000000000000  0.1654679099999967  0.4631127000000035   F   F   F
  0.2500000000000000  0.8503849100000025  0.4590635200000008   F   F   F
  0.7500000000000000  0.8503849100000025  0.4590635200000008   F   F   F
  0.0000000000000000  0.6496150899999975  0.4159364799999992   F   F   F
  0.5000000000000000  0.6496150899999975  0.4159364799999992   F   F   F
  0.0000000000000000  0.8345320900000033  0.2868872999999965   F   F   F
  0.5000000000000000  0.8345320900000033  0.2868872999999965   F   F   F
  0.2500000000000000  0.6654679099999967  0.3381127000000035   F   F   F
  0.7500000000000000  0.6654679099999967  0.3381127000000035   F   F   F
  0.0000000000000000  0.3572878211444583  0.5832280836577908   T   T   T
  0.5000000000000000  0.3567115405679796  0.5833471688077410   T   T   T
  0.2499753583909615  0.1536519760932689  0.5408487247498341   T   T   T
  0.7500246416090386  0.1536519760932689  0.5408487247498341   T   T   T
  0.2452680742042247  0.3312387687281262  0.6614210670598828   T   T   T
  0.7547319257957751  0.3312387687281262  0.6614210670598828   T   T   T
  0.5000000000000000  0.1574351477952237  0.7097091542618018   T   T   T
  0.2522127635575934  0.8437058067889003  0.7144046698208758   T   T   T
  0.7477872364424066  0.8437058067889003  0.7144046698208758   T   T   T
  0.0000000000000000  0.6506963314620311  0.6666953684156844   T   T   T
  0.5000000000000000  0.6484610405391706  0.6667445870762990   T   T   T
  0.0000000000000000  0.8382307203187406  0.5369939426624801   T   T   T
  0.5000000000000000  0.8382421178555829  0.5370373776507530   T   T   T
  0.2502832846140325  0.6706823247387780  0.5884098747351788   T   T   T
  0.7497167153859673  0.6706823247387780  0.5884098747351788   T   T   T
  0.2500000000000000  0.3413040399999971  0.3638725499999964   F   F   F
  0.7500000000000000  0.3413040399999971  0.3638725499999964   F   F   F
  0.0000000000000000  0.1586959600000029  0.2611274499999965   F   F   F
  0.5000000000000000  0.1586959600000029  0.2611274499999965   F   F   F
  0.2500000000000000  0.3432976799999992  0.3026394400000001   F   F   F
  0.7500000000000000  0.3432976799999992  0.3026394400000001   F   F   F
  0.0000000000000000  0.1567023200000008  0.3223605599999999   F   F   F
  0.5000000000000000  0.1567023200000008  0.3223605599999999   F   F   F
  0.0000000000000000  0.5448724299999981  0.3370376000000022   F   F   F
  0.5000000000000000  0.5448724299999981  0.3370376000000022   F   F   F
  0.2500000000000000  0.9551275700000019  0.2879623999999978   F   F   F
  0.7500000000000000  0.9551275700000019  0.2879623999999978   F   F   F
  0.0000000000000000  0.2072168199999993  0.4147625000000019   F   F   F
  0.5000000000000000  0.2072168199999993  0.4147625000000019   F   F   F
  0.2500000000000000  0.2927831800000007  0.4602374999999981   F   F   F
  0.7500000000000000  0.2927831800000007  0.4602374999999981   F   F   F
  0.0000000000000000  0.8413040399999971  0.4888725499999964   F   F   F
  0.5000000000000000  0.8413040399999971  0.4888725499999964   F   F   F
  0.2500000000000000  0.6586959600000029  0.3861274499999965   F   F   F
  0.7500000000000000  0.6586959600000029  0.3861274499999965   F   F   F
  0.0000000000000000  0.8432976799999992  0.4276394400000001   F   F   F
  0.5000000000000000  0.8432976799999992  0.4276394400000001   F   F   F
  0.2500000000000000  0.6567023200000008  0.4473605599999999   F   F   F
  0.7500000000000000  0.6567023200000008  0.4473605599999999   F   F   F
  0.2500000000000000  0.0448724299999981  0.4620376000000022   F   F   F
  0.7500000000000000  0.0448724299999981  0.4620376000000022   F   F   F
  0.0000000000000000  0.4551275700000019  0.4129623999999978   F   F   F
  0.5000000000000000  0.4551275700000019  0.4129623999999978   F   F   F
  0.2500000000000000  0.7072168199999993  0.2897625000000019   F   F   F
  0.7500000000000000  0.7072168199999993  0.2897625000000019   F   F   F
  0.0000000000000000  0.7927831800000007  0.3352374999999981   F   F   F
  0.5000000000000000  0.7927831800000007  0.3352374999999981   F   F   F
  0.2488077645586119  0.3513308879272664  0.6128342656073720   T   T   T
  0.7511922354413881  0.3513308879272664  0.6128342656073720   T   T   T
  0.0000000000000000  0.1603769305425577  0.5111274051719079   T   T   T
  0.5000000000000000  0.1599334054179810  0.5111498010556373   T   T   T
  0.2512017675606584  0.3484709907676262  0.5518880508083400   T   T   T
  0.7487982324393416  0.3484709907676262  0.5518880508083400   T   T   T
  0.0000000000000000  0.1626709915982496  0.5721466306870342   T   T   T
  0.5000000000000000  0.1625326936029315  0.5721807270423005   T   T   T
  0.0000000000000000  0.5513487865176954  0.5867116075961447   T   T   T
  0.5000000000000000  0.5509729476519687  0.5869378376116140   T   T   T
  0.2497525979489705  0.9588674467919691  0.5380715404436309   T   T   T
  0.7502474020510294  0.9588674467919691  0.5380715404436309   T   T   T
  0.0000000000000000  0.2180417732800056  0.6556640089460998   T   T   T
  0.5000000000000000  0.2025358835469711  0.6615782006493901   T   T   T
  0.2769349845227774  0.2907648456243141  0.7066535075261364   T   T   T
  0.7230650154772226  0.2907648456243141  0.7066535075261364   T   T   T
  0.0000000000000000  0.8171330116259635  0.7413316185432164   T   T   T
  0.5000000000000000  0.8035934194675945  0.7413077056162226   T   T   T
  0.2507557944420034  0.6620605930635362  0.6368465764787428   T   T   T
  0.7492442055579968  0.6620605930635362  0.6368465764787428   T   T   T
  0.0000000000000000  0.8387164407712068  0.6816600626802413   T   T   T
  0.5000000000000000  0.8370235131828691  0.6812314134795440   T   T   T
  0.2486505592327647  0.6541081204487093  0.6975350724181585   T   T   T
  0.7513494407672351  0.6541081204487093  0.6975350724181585   T   T   T
  0.2858751343464034  0.0274549613113437  0.7178396405390987   T   T   T
  0.7141248656535970  0.0274549613113437  0.7178396405390987   T   T   T
  0.0000000000000000  0.4546581167824315  0.6638354350695642   T   T   T
  0.5000000000000000  0.4525763841303637  0.6613970941699775   T   T   T
  0.2501073233689245  0.7110876941405742  0.5400938508422073   T   T   T
  0.7498926766310759  0.7110876941405742  0.5400938508422073   T   T   T
  0.0000000000000000  0.7978490290423886  0.5854672382477690   T   T   T
  0.5000000000000000  0.7976099222926774  0.5855188819100403   T   T   T
 
  0.00000000E+00  0.00000000E+00  0.00000000E+00
  0.00000000E+00  0.00000000E+00  0.00000000E+00
  0.00000000E+00  0.00000000E+00  0.00000000E+00
  0.00000000E+00  0.00000000E+00  0.00000000E+00
  0.00000000E+00  0.00000000E+00  0.00000000E+00
  0.00000000E+00  0.00000000E+00  0.00000000E+00
  0.00000000E+00  0.00000000E+00  0.00000000E+00
  0.00000000E+00  0.00000000E+00  0.00000000E+00
  0.00000000E+00  0.00000000E+00  0.00000000E+00
  0.00000000E+00  0.00000000E+00  0.00000000E+00
  0.00000000E+00  0.00000000E+00  0.00000000E+00
  0.00000000E+00  0.00000000E+00  0.00000000E+00
  0.00000000E+00  0.00000000E+00  0.00000000E+00
  0.00000000E+00  0.00000000E+00  0.00000000E+00
  0.00000000E+00  0.00000000E+00  0.00000000E+00
  0.00000000E+00  0.00000000E+00  0.00000000E+00
  0.00000000E+00  0.00000000E+00  0.00000000E+00
  0.00000000E+00  0.00000000E+00  0.00000000E+00
  0.00000000E+00  0.00000000E+00  0.00000000E+00
  0.00000000E+00  0.00000000E+00  0.00000000E+00
  0.00000000E+00  0.00000000E+00  0.00000000E+00
  0.00000000E+00  0.00000000E+00  0.00000000E+00
  0.00000000E+00  0.00000000E+00  0.00000000E+00
  0.00000000E+00  0.00000000E+00  0.00000000E+00
  0.00000000E+00  0.00000000E+00  0.00000000E+00
  0.00000000E+00  0.00000000E+00  0.00000000E+00
  0.00000000E+00  0.00000000E+00  0.00000000E+00
  0.00000000E+00  0.00000000E+00  0.00000000E+00
  0.00000000E+00  0.00000000E+00  0.00000000E+00
  0.00000000E+00  0.00000000E+00  0.00000000E+00
  0.00000000E+00  0.00000000E+00  0.00000000E+00
  0.00000000E+00  0.00000000E+00  0.00000000E+00
  0.00000000E+00  0.00000000E+00  0.00000000E+00
  0.00000000E+00  0.00000000E+00  0.00000000E+00
  0.00000000E+00  0.00000000E+00  0.00000000E+00
  0.00000000E+00  0.00000000E+00  0.00000000E+00
  0.00000000E+00  0.00000000E+00  0.00000000E+00
  0.00000000E+00  0.00000000E+00  0.00000000E+00
  0.00000000E+00  0.00000000E+00  0.00000000E+00
  0.00000000E+00  0.00000000E+00  0.00000000E+00
  0.00000000E+00  0.00000000E+00  0.00000000E+00
  0.00000000E+00  0.00000000E+00  0.00000000E+00
  0.00000000E+00  0.00000000E+00  0.00000000E+00
  0.00000000E+00  0.00000000E+00  0.00000000E+00
  0.00000000E+00  0.00000000E+00  0.00000000E+00
  0.00000000E+00  0.00000000E+00  0.00000000E+00
  0.00000000E+00  0.00000000E+00  0.00000000E+00
  0.00000000E+00  0.00000000E+00  0.00000000E+00
  0.00000000E+00  0.00000000E+00  0.00000000E+00
  0.00000000E+00  0.00000000E+00  0.00000000E+00
  0.00000000E+00  0.00000000E+00  0.00000000E+00
  0.00000000E+00  0.00000000E+00  0.00000000E+00
  0.00000000E+00  0.00000000E+00  0.00000000E+00
  0.00000000E+00  0.00000000E+00  0.00000000E+00
  0.00000000E+00  0.00000000E+00  0.00000000E+00
  0.00000000E+00  0.00000000E+00  0.00000000E+00
  0.00000000E+00  0.00000000E+00  0.00000000E+00
  0.00000000E+00  0.00000000E+00  0.00000000E+00
  0.00000000E+00  0.00000000E+00  0.00000000E+00
  0.00000000E+00  0.00000000E+00  0.00000000E+00
  0.00000000E+00  0.00000000E+00  0.00000000E+00
  0.00000000E+00  0.00000000E+00  0.00000000E+00
  0.00000000E+00  0.00000000E+00  0.00000000E+00
  0.00000000E+00  0.00000000E+00  0.00000000E+00
  0.00000000E+00  0.00000000E+00  0.00000000E+00
  0.00000000E+00  0.00000000E+00  0.00000000E+00
  0.00000000E+00  0.00000000E+00  0.00000000E+00
  0.00000000E+00  0.00000000E+00  0.00000000E+00
  0.00000000E+00  0.00000000E+00  0.00000000E+00
  0.00000000E+00  0.00000000E+00  0.00000000E+00
  0.00000000E+00  0.00000000E+00  0.00000000E+00
  0.00000000E+00  0.00000000E+00  0.00000000E+00
  0.00000000E+00  0.00000000E+00  0.00000000E+00
  0.00000000E+00  0.00000000E+00  0.00000000E+00
  0.00000000E+00  0.00000000E+00  0.00000000E+00
  0.00000000E+00  0.00000000E+00  0.00000000E+00
  0.00000000E+00  0.00000000E+00  0.00000000E+00
  0.00000000E+00  0.00000000E+00  0.00000000E+00
  0.00000000E+00  0.00000000E+00  0.00000000E+00
  0.00000000E+00  0.00000000E+00  0.00000000E+00
  0.00000000E+00  0.00000000E+00  0.00000000E+00
  0.00000000E+00  0.00000000E+00  0.00000000E+00
  0.00000000E+00  0.00000000E+00  0.00000000E+00
  0.00000000E+00  0.00000000E+00  0.00000000E+00
  0.00000000E+00  0.00000000E+00  0.00000000E+00
  0.00000000E+00  0.00000000E+00  0.00000000E+00
  0.00000000E+00  0.00000000E+00  0.00000000E+00
  0.00000000E+00  0.00000000E+00  0.00000000E+00
  0.00000000E+00  0.00000000E+00  0.00000000E+00
  0.00000000E+00  0.00000000E+00  0.00000000E+00
  0.00000000E+00  0.00000000E+00  0.00000000E+00
  0.00000000E+00  0.00000000E+00  0.00000000E+00
  0.00000000E+00  0.00000000E+00  0.00000000E+00
  0.00000000E+00  0.00000000E+00  0.00000000E+00
  0.00000000E+00  0.00000000E+00  0.00000000E+00
