 H Ir  O                                
   1.00000000000000     
     6.3014313599999996    0.0000000000000000    0.0000000000000004
     3.1507156800000011    5.4571996379639227    0.0000000000000004
     0.0000000000000000    0.0000000000000000   40.2314321400000026
   H    Ir   O 
     1    16    32
Selective dynamics
Direct
  0.6699013658841874  0.1657110332201819  0.7369286420845583   T   T   T
  0.0076128713980980  0.9964230197647057  0.6874022107957956   T   T   T
  0.4967370704725671  0.5074179692751026  0.6874846264322650   T   T   T
  0.4969687634360678  0.9965217017611940  0.6874844308918439   T   T   T
  0.0001725015270853  0.5001029310248083  0.6886090927198129   T   T   T
 -0.0006285266938925  0.0003853983197394  0.5623205627813784   T   T   T
  0.5002858479995439  0.4992486586862279  0.5623262402945897   T   T   T
  0.5001817361931784  0.0005094729664665  0.5623239801081970   T   T   T
  0.0002034702668845  0.4998925384038320  0.5623222299379310   T   T   T
  0.0000000000000000  0.0000000000000000  0.4375000000000000   F   F   F
  0.5000000000000000  0.5000000000000000  0.4375000000000000   F   F   F
  0.5000000000000000  0.0000000000000000  0.4375000000000000   F   F   F
  0.0000000000000000  0.5000000000000000  0.4375000000000000   F   F   F
  0.0000000000000000  0.0000000000000000  0.3125000000000000   F   F   F
  0.5000000000000000  0.5000000000000000  0.3125000000000000   F   F   F
  0.5000000000000000  0.0000000000000000  0.3125000000000000   F   F   F
  0.0000000000000000  0.5000000000000000  0.3125000000000000   F   F   F
  0.6636186742341605  0.6687048809581072  0.7111792393966199   T   T   T
  0.1686432198413780  0.1633843980712853  0.7110589764875077   T   T   T
  0.1683318450513722  0.6686354691160357  0.7111125182779635   T   T   T
  0.6677667645676091  0.1664194483937968  0.7126368506683330   T   T   T
  0.6665161851814999  0.6667610670049241  0.5400566975535372   T   T   T
  0.1667260891962157  0.1665306654562216  0.5399381990895655   T   T   T
  0.1667696929401508  0.6668042384485084  0.5399820616356747   T   T   T
  0.6667083105443286  0.1666065353129727  0.5396875251770931   T   T   T
  0.3340853289634180  0.8331726333344178  0.6635474822663535   T   T   T
  0.8333826721944928  0.3337960547189818  0.6664500505211041   T   T   T
  0.8339239995865012  0.8328669322309085  0.6664693753120581   T   T   T
  0.3335035105464348  0.3337908098403169  0.6665115594229427   T   T   T
  0.3333505659575279  0.8333069446533532  0.5844540001209078   T   T   T
  0.8334305632658313  0.3334467034219685  0.5848597138470761   T   T   T
  0.8333822847021459  0.8332072484750815  0.5848341835542695   T   T   T
  0.3331971341497251  0.3334060635091244  0.5849284813329878   T   T   T
  0.6666666666666643  0.6666666666666643  0.4599284800000021   F   F   F
  0.1666666666666643  0.1666666666666643  0.4599284800000021   F   F   F
  0.1666666666666643  0.6666666666666643  0.4599284800000021   F   F   F
  0.6666666666666643  0.1666666666666643  0.4599284800000021   F   F   F
  0.6666666666666643  0.6666666666666643  0.2900715199999979   F   F   F
  0.1666666666666643  0.1666666666666643  0.2900715199999979   F   F   F
  0.1666666666666643  0.6666666666666643  0.2900715199999979   F   F   F
  0.6666666666666643  0.1666666666666643  0.2900715199999979   F   F   F
  0.3333333333333357  0.8333333333333357  0.4150715199999979   F   F   F
  0.8333333333333357  0.3333333333333357  0.4150715199999979   F   F   F
  0.8333333333333357  0.8333333333333357  0.4150715199999979   F   F   F
  0.3333333333333357  0.3333333333333357  0.4150715199999979   F   F   F
  0.3333333333333357  0.8333333333333357  0.3349284800000021   F   F   F
  0.8333333333333357  0.3333333333333357  0.3349284800000021   F   F   F
  0.8333333333333357  0.8333333333333357  0.3349284800000021   F   F   F
  0.3333333333333357  0.3333333333333357  0.3349284800000021   F   F   F
 
  0.00000000E+00  0.00000000E+00  0.00000000E+00
  0.00000000E+00  0.00000000E+00  0.00000000E+00
  0.00000000E+00  0.00000000E+00  0.00000000E+00
  0.00000000E+00  0.00000000E+00  0.00000000E+00
  0.00000000E+00  0.00000000E+00  0.00000000E+00
  0.00000000E+00  0.00000000E+00  0.00000000E+00
  0.00000000E+00  0.00000000E+00  0.00000000E+00
  0.00000000E+00  0.00000000E+00  0.00000000E+00
  0.00000000E+00  0.00000000E+00  0.00000000E+00
  0.00000000E+00  0.00000000E+00  0.00000000E+00
  0.00000000E+00  0.00000000E+00  0.00000000E+00
  0.00000000E+00  0.00000000E+00  0.00000000E+00
  0.00000000E+00  0.00000000E+00  0.00000000E+00
  0.00000000E+00  0.00000000E+00  0.00000000E+00
  0.00000000E+00  0.00000000E+00  0.00000000E+00
  0.00000000E+00  0.00000000E+00  0.00000000E+00
  0.00000000E+00  0.00000000E+00  0.00000000E+00
  0.00000000E+00  0.00000000E+00  0.00000000E+00
  0.00000000E+00  0.00000000E+00  0.00000000E+00
  0.00000000E+00  0.00000000E+00  0.00000000E+00
  0.00000000E+00  0.00000000E+00  0.00000000E+00
  0.00000000E+00  0.00000000E+00  0.00000000E+00
  0.00000000E+00  0.00000000E+00  0.00000000E+00
  0.00000000E+00  0.00000000E+00  0.00000000E+00
  0.00000000E+00  0.00000000E+00  0.00000000E+00
  0.00000000E+00  0.00000000E+00  0.00000000E+00
  0.00000000E+00  0.00000000E+00  0.00000000E+00
  0.00000000E+00  0.00000000E+00  0.00000000E+00
  0.00000000E+00  0.00000000E+00  0.00000000E+00
  0.00000000E+00  0.00000000E+00  0.00000000E+00
  0.00000000E+00  0.00000000E+00  0.00000000E+00
  0.00000000E+00  0.00000000E+00  0.00000000E+00
  0.00000000E+00  0.00000000E+00  0.00000000E+00
  0.00000000E+00  0.00000000E+00  0.00000000E+00
  0.00000000E+00  0.00000000E+00  0.00000000E+00
  0.00000000E+00  0.00000000E+00  0.00000000E+00
  0.00000000E+00  0.00000000E+00  0.00000000E+00
  0.00000000E+00  0.00000000E+00  0.00000000E+00
  0.00000000E+00  0.00000000E+00  0.00000000E+00
  0.00000000E+00  0.00000000E+00  0.00000000E+00
  0.00000000E+00  0.00000000E+00  0.00000000E+00
  0.00000000E+00  0.00000000E+00  0.00000000E+00
  0.00000000E+00  0.00000000E+00  0.00000000E+00
  0.00000000E+00  0.00000000E+00  0.00000000E+00
  0.00000000E+00  0.00000000E+00  0.00000000E+00
  0.00000000E+00  0.00000000E+00  0.00000000E+00
  0.00000000E+00  0.00000000E+00  0.00000000E+00
  0.00000000E+00  0.00000000E+00  0.00000000E+00
  0.00000000E+00  0.00000000E+00  0.00000000E+00
