Ir15 O32                                
   1.00000000000000     
     6.3790139999999997    0.0000000000000000    0.0000000000000004
     0.0000000000000010    6.4275143699999999    0.0000000000000004
     0.0000000000000000    0.0000000000000000   32.1375718700000021
   Ir   O 
    15    32
Selective dynamics
Direct
  0.2500000000000000  0.5000000000000000  0.5494707452819699   T   T   T
  0.7500000000000000  0.5000000000000000  0.5495085148211374   T   T   T
  0.2500000000000000  0.0000000000000000  0.6535119961485498   T   T   T
 -0.0088565406929473  0.5000000000000000  0.6481517229023006   T   T   T
  0.5088565406929474  0.5000000000000000  0.6481517229023006   T   T   T
  0.0028802744914722  0.0000000000000000  0.5506923083663977   T   T   T
  0.4971197255085279  0.0000000000000000  0.5506923083663977   T   T   T
  0.2500000000000000  0.5000000000000000  0.3500000000000014   F   F   F
  0.7500000000000000  0.5000000000000000  0.3500000000000014   F   F   F
  0.2500000000000000  0.0000000000000000  0.4500000000000028   F   F   F
  0.7500000000000000  0.0000000000000000  0.4500000000000028   F   F   F
  0.0000000000000000  0.5000000000000000  0.4500000000000028   F   F   F
  0.5000000000000000  0.5000000000000000  0.4500000000000028   F   F   F
  0.0000000000000000  0.0000000000000000  0.3500000000000014   F   F   F
  0.5000000000000000  0.0000000000000000  0.3500000000000014   F   F   F
 -0.0004775300017231  0.5000000000000000  0.5876763435825889   T   T   T
  0.5004775300017232  0.5000000000000000  0.5876763435825889   T   T   T
  0.0349457717039077  0.0000000000000000  0.6885733477398672   T   T   T
  0.4650542282960924  0.0000000000000000  0.6885733477398672   T   T   T
  0.2500000000000000  0.8086768675834612  0.5472756937175828   T   T   T
  0.7500000000000000  0.8093968259463056  0.5507425091587049   T   T   T
  0.2500000000000000  0.3134377889892681  0.6541273228054243   T   T   T
  0.7500000000000000  0.3193987285914324  0.6530002639188952   T   T   T
 -0.0002553347756561  0.5000000000000000  0.5113509636855303   T   T   T
  0.5002553347756564  0.5000000000000000  0.5113509636855303   T   T   T
  0.0305912310189241  0.0000000000000000  0.6091075241626343   T   T   T
  0.4694087689810759  0.0000000000000000  0.6091075241626343   T   T   T
  0.2500000000000000  0.1913231324165389  0.5472756937175828   T   T   T
  0.7500000000000000  0.1906031740536943  0.5507425091587049   T   T   T
  0.2500000000000000  0.6865622110107319  0.6541273228054243   T   T   T
  0.7500000000000000  0.6806012714085681  0.6530002639188952   T   T   T
  0.0000000000000000  0.5000000000000000  0.3883292000000012   F   F   F
  0.5000000000000000  0.5000000000000000  0.3883292000000012   F   F   F
  0.0000000000000000  0.0000000000000000  0.4883292000000026   F   F   F
  0.5000000000000000  0.0000000000000000  0.4883292000000026   F   F   F
  0.2500000000000000  0.8083540000000013  0.3500000000000014   F   F   F
  0.7500000000000000  0.8083540000000013  0.3500000000000014   F   F   F
  0.2500000000000000  0.3083540000000013  0.4500000000000028   F   F   F
  0.7500000000000000  0.3083540000000013  0.4500000000000028   F   F   F
  0.0000000000000000  0.5000000000000000  0.3116708000000017   F   F   F
  0.5000000000000000  0.5000000000000000  0.3116708000000017   F   F   F
  0.0000000000000000  0.0000000000000000  0.4116708000000031   F   F   F
  0.5000000000000000  0.0000000000000000  0.4116708000000031   F   F   F
  0.2500000000000000  0.1916459999999987  0.3500000000000014   F   F   F
  0.7500000000000000  0.1916459999999987  0.3500000000000014   F   F   F
  0.2500000000000000  0.6916459999999987  0.4500000000000028   F   F   F
  0.7500000000000000  0.6916459999999987  0.4500000000000028   F   F   F
 
  0.00000000E+00  0.00000000E+00  0.00000000E+00
  0.00000000E+00  0.00000000E+00  0.00000000E+00
  0.00000000E+00  0.00000000E+00  0.00000000E+00
  0.00000000E+00  0.00000000E+00  0.00000000E+00
  0.00000000E+00  0.00000000E+00  0.00000000E+00
  0.00000000E+00  0.00000000E+00  0.00000000E+00
  0.00000000E+00  0.00000000E+00  0.00000000E+00
  0.00000000E+00  0.00000000E+00  0.00000000E+00
  0.00000000E+00  0.00000000E+00  0.00000000E+00
  0.00000000E+00  0.00000000E+00  0.00000000E+00
  0.00000000E+00  0.00000000E+00  0.00000000E+00
  0.00000000E+00  0.00000000E+00  0.00000000E+00
  0.00000000E+00  0.00000000E+00  0.00000000E+00
  0.00000000E+00  0.00000000E+00  0.00000000E+00
  0.00000000E+00  0.00000000E+00  0.00000000E+00
  0.00000000E+00  0.00000000E+00  0.00000000E+00
  0.00000000E+00  0.00000000E+00  0.00000000E+00
  0.00000000E+00  0.00000000E+00  0.00000000E+00
  0.00000000E+00  0.00000000E+00  0.00000000E+00
  0.00000000E+00  0.00000000E+00  0.00000000E+00
  0.00000000E+00  0.00000000E+00  0.00000000E+00
  0.00000000E+00  0.00000000E+00  0.00000000E+00
  0.00000000E+00  0.00000000E+00  0.00000000E+00
  0.00000000E+00  0.00000000E+00  0.00000000E+00
  0.00000000E+00  0.00000000E+00  0.00000000E+00
  0.00000000E+00  0.00000000E+00  0.00000000E+00
  0.00000000E+00  0.00000000E+00  0.00000000E+00
  0.00000000E+00  0.00000000E+00  0.00000000E+00
  0.00000000E+00  0.00000000E+00  0.00000000E+00
  0.00000000E+00  0.00000000E+00  0.00000000E+00
  0.00000000E+00  0.00000000E+00  0.00000000E+00
  0.00000000E+00  0.00000000E+00  0.00000000E+00
  0.00000000E+00  0.00000000E+00  0.00000000E+00
  0.00000000E+00  0.00000000E+00  0.00000000E+00
  0.00000000E+00  0.00000000E+00  0.00000000E+00
  0.00000000E+00  0.00000000E+00  0.00000000E+00
  0.00000000E+00  0.00000000E+00  0.00000000E+00
  0.00000000E+00  0.00000000E+00  0.00000000E+00
  0.00000000E+00  0.00000000E+00  0.00000000E+00
  0.00000000E+00  0.00000000E+00  0.00000000E+00
  0.00000000E+00  0.00000000E+00  0.00000000E+00
  0.00000000E+00  0.00000000E+00  0.00000000E+00
  0.00000000E+00  0.00000000E+00  0.00000000E+00
  0.00000000E+00  0.00000000E+00  0.00000000E+00
  0.00000000E+00  0.00000000E+00  0.00000000E+00
  0.00000000E+00  0.00000000E+00  0.00000000E+00
  0.00000000E+00  0.00000000E+00  0.00000000E+00
