Ir32 O64                                
   1.00000000000000     
    10.1023775699999998    0.0000000000000000    0.0000000000000006
     0.0838353739394686   10.2423266615791402    0.0000000000000006
     0.0000000000000000    0.0000000000000000   28.6847121700000010
   Ir   O 
    32    64
Selective dynamics
Direct
  0.6496150899999975  0.6637459000000021  0.3611111100000031   F   F   F
  0.8503849100000025  0.8362540999999979  0.3055555600000019   F   F   F
  0.6654679099999967  0.3524508100000006  0.3055555600000019   F   F   F
  0.8345320900000033  0.1475491899999994  0.3611111100000031   F   F   F
  0.1496150899999975  0.1637459000000021  0.3055555600000019   F   F   F
  0.3503849100000025  0.3362540999999979  0.3611111100000031   F   F   F
  0.1654679099999967  0.8524508100000006  0.3611111100000031   F   F   F
  0.3345320900000033  0.6475491899999994  0.3055555600000019   F   F   F
  0.6496150899999975  0.6637459000000021  0.4722222199999990   F   F   F
  0.8503849100000025  0.8362540999999979  0.4166666699999979   F   F   F
  0.6654679099999967  0.3524508100000006  0.4166666699999979   F   F   F
  0.8345320900000033  0.1475491899999994  0.4722222199999990   F   F   F
  0.1496150899999975  0.1637459000000021  0.4166666699999979   F   F   F
  0.3503849100000025  0.3362540999999979  0.4722222199999990   F   F   F
  0.1654679099999967  0.8524508100000006  0.4722222199999990   F   F   F
  0.3345320900000033  0.6475491899999994  0.4166666699999979   F   F   F
  0.6471975584326953  0.6621634429258528  0.5820784003924658   T   T   T
  0.8487337717986494  0.8353425729072308  0.5285231740124520   T   T   T
  0.6664209990450659  0.3508849287616420  0.5285394484049638   T   T   T
  0.8364208877120632  0.1451250071358574  0.5821181708262465   T   T   T
  0.1512662282013509  0.1646574270927693  0.5285231740124520   T   T   T
  0.3528024415673047  0.3378365570741471  0.5820784003924658   T   T   T
  0.1635791122879367  0.8548749928641428  0.5821181708262465   T   T   T
  0.3335790009549341  0.6491150712383581  0.5285394484049638   T   T   T
  0.6389591554405670  0.6533906254239491  0.6893430648928928   T   T   T
  0.8417261497929917  0.8338203843051595  0.6423143487193661   T   T   T
  0.6677530739467706  0.3436553564470011  0.6422847164091571   T   T   T
  0.8451109696282760  0.1362459323283865  0.6894872245407369   T   T   T
  0.1582738502070086  0.1661796156948406  0.6423143487193661   T   T   T
  0.3610408445594329  0.3466093745760511  0.6893430648928928   T   T   T
  0.1548890303717242  0.8637540676716131  0.6894872245407369   T   T   T
  0.3322469260532294  0.6563446435529987  0.6422847164091571   T   T   T
  0.6586959600000029  0.5445098000000002  0.3055555600000019   F   F   F
  0.8413040399999971  0.9554901999999998  0.3611111100000031   F   F   F
  0.6567023200000008  0.7894422399999996  0.3055555600000019   F   F   F
  0.8432976799999992  0.7105577600000004  0.3611111100000031   F   F   F
  0.4551275700000019  0.6518496099999993  0.3611111100000031   F   F   F
  0.0448724299999981  0.8481503900000007  0.3055555600000019   F   F   F
  0.7927831800000007  0.3409499799999978  0.3611111100000031   F   F   F
  0.7072168199999993  0.1590500200000022  0.3055555600000019   F   F   F
  0.1586959600000029  0.0445098000000002  0.3611111100000031   F   F   F
  0.3413040399999971  0.4554901999999998  0.3055555600000019   F   F   F
  0.1567023200000008  0.2894422399999996  0.3611111100000031   F   F   F
  0.3432976799999992  0.2105577600000004  0.3055555600000019   F   F   F
  0.9551275700000019  0.1518496099999993  0.3055555600000019   F   F   F
  0.5448724299999981  0.3481503900000007  0.3611111100000031   F   F   F
  0.2927831800000007  0.8409499799999978  0.3055555600000019   F   F   F
  0.2072168199999993  0.6590500200000022  0.3611111100000031   F   F   F
  0.6586959600000029  0.5445098000000002  0.4166666699999979   F   F   F
  0.8413040399999971  0.9554901999999998  0.4722222199999990   F   F   F
  0.6567023200000008  0.7894422399999996  0.4166666699999979   F   F   F
  0.8432976799999992  0.7105577600000004  0.4722222199999990   F   F   F
  0.4551275700000019  0.6518496099999993  0.4722222199999990   F   F   F
  0.0448724299999981  0.8481503900000007  0.4166666699999979   F   F   F
  0.7927831800000007  0.3409499799999978  0.4722222199999990   F   F   F
  0.7072168199999993  0.1590500200000022  0.4166666699999979   F   F   F
  0.1586959600000029  0.0445098000000002  0.4722222199999990   F   F   F
  0.3413040399999971  0.4554901999999998  0.4166666699999979   F   F   F
  0.1567023200000008  0.2894422399999996  0.4722222199999990   F   F   F
  0.3432976799999992  0.2105577600000004  0.4166666699999979   F   F   F
  0.9551275700000019  0.1518496099999993  0.4166666699999979   F   F   F
  0.5448724299999981  0.3481503900000007  0.4722222199999990   F   F   F
  0.2927831800000007  0.8409499799999978  0.4166666699999979   F   F   F
  0.2072168199999993  0.6590500200000022  0.4722222199999990   F   F   F
  0.6593196198786464  0.5442020813084845  0.5277305830120781   T   T   T
  0.8432573128249256  0.9532531218263616  0.5842590295981754   T   T   T
  0.6533101059207558  0.7910947555256282  0.5277808557656285   T   T   T
  0.8391443273918211  0.7106271863717842  0.5839307293056816   T   T   T
  0.4532290136537917  0.6505565151495309  0.5842409637595987   T   T   T
  0.0441098842975618  0.8475236159479163  0.5276810092100755   T   T   T
  0.7925354887417463  0.3364325133038639  0.5839466726630044   T   T   T
  0.7059911225697870  0.1561555937280615  0.5278267064736506   T   T   T
  0.1567426871750747  0.0467468781736384  0.5842590295981754   T   T   T
  0.3406803801213538  0.4557979186915158  0.5277305830120781   T   T   T
  0.1608556726081787  0.2893728136282154  0.5839307293056816   T   T   T
  0.3466898940792443  0.2089052444743719  0.5277808557656285   T   T   T
  0.9558901157024382  0.1524763840520837  0.5276810092100755   T   T   T
  0.5467709863462085  0.3494434848504691  0.5842409637595987   T   T   T
  0.2940088774302127  0.8438444062719385  0.5278267064736506   T   T   T
  0.2074645112582537  0.6635674866961361  0.5839466726630044   T   T   T
  0.6624297541105832  0.5363032581045218  0.6382328829558475   T   T   T
  0.8500336438186257  0.9561188127717024  0.6965933445381514   T   T   T
  0.6486351433441349  0.7890954300092493  0.6380443069721055   T   T   T
  0.8166832515870101  0.7102864557749081  0.6949426456332607   T   T   T
  0.4565679674582617  0.6457421396544717  0.6963897210249571   T   T   T
  0.0364784686062390  0.8447142886454255  0.6382064486878725   T   T   T
  0.7921594977753856  0.3140778339685079  0.6948994294163816   T   T   T
  0.7080197277534056  0.1513553315265559  0.6381474975856157   T   T   T
  0.1499663561813746  0.0438811872282977  0.6965933445381514   T   T   T
  0.3375702458894166  0.4636967418954782  0.6382328829558475   T   T   T
  0.1833167484129901  0.2897135442250919  0.6949426456332607   T   T   T
  0.3513648566558651  0.2109045699907506  0.6380443069721055   T   T   T
  0.9635215313937608  0.1552857113545747  0.6382064486878725   T   T   T
  0.5434320325417382  0.3542578603455286  0.6963897210249571   T   T   T
  0.2919802722465938  0.8486446684734441  0.6381474975856157   T   T   T
  0.2078405022246146  0.6859221660314920  0.6948994294163816   T   T   T
 
  0.00000000E+00  0.00000000E+00  0.00000000E+00
  0.00000000E+00  0.00000000E+00  0.00000000E+00
  0.00000000E+00  0.00000000E+00  0.00000000E+00
  0.00000000E+00  0.00000000E+00  0.00000000E+00
  0.00000000E+00  0.00000000E+00  0.00000000E+00
  0.00000000E+00  0.00000000E+00  0.00000000E+00
  0.00000000E+00  0.00000000E+00  0.00000000E+00
  0.00000000E+00  0.00000000E+00  0.00000000E+00
  0.00000000E+00  0.00000000E+00  0.00000000E+00
  0.00000000E+00  0.00000000E+00  0.00000000E+00
  0.00000000E+00  0.00000000E+00  0.00000000E+00
  0.00000000E+00  0.00000000E+00  0.00000000E+00
  0.00000000E+00  0.00000000E+00  0.00000000E+00
  0.00000000E+00  0.00000000E+00  0.00000000E+00
  0.00000000E+00  0.00000000E+00  0.00000000E+00
  0.00000000E+00  0.00000000E+00  0.00000000E+00
  0.00000000E+00  0.00000000E+00  0.00000000E+00
  0.00000000E+00  0.00000000E+00  0.00000000E+00
  0.00000000E+00  0.00000000E+00  0.00000000E+00
  0.00000000E+00  0.00000000E+00  0.00000000E+00
  0.00000000E+00  0.00000000E+00  0.00000000E+00
  0.00000000E+00  0.00000000E+00  0.00000000E+00
  0.00000000E+00  0.00000000E+00  0.00000000E+00
  0.00000000E+00  0.00000000E+00  0.00000000E+00
  0.00000000E+00  0.00000000E+00  0.00000000E+00
  0.00000000E+00  0.00000000E+00  0.00000000E+00
  0.00000000E+00  0.00000000E+00  0.00000000E+00
  0.00000000E+00  0.00000000E+00  0.00000000E+00
  0.00000000E+00  0.00000000E+00  0.00000000E+00
  0.00000000E+00  0.00000000E+00  0.00000000E+00
  0.00000000E+00  0.00000000E+00  0.00000000E+00
  0.00000000E+00  0.00000000E+00  0.00000000E+00
  0.00000000E+00  0.00000000E+00  0.00000000E+00
  0.00000000E+00  0.00000000E+00  0.00000000E+00
  0.00000000E+00  0.00000000E+00  0.00000000E+00
  0.00000000E+00  0.00000000E+00  0.00000000E+00
  0.00000000E+00  0.00000000E+00  0.00000000E+00
  0.00000000E+00  0.00000000E+00  0.00000000E+00
  0.00000000E+00  0.00000000E+00  0.00000000E+00
  0.00000000E+00  0.00000000E+00  0.00000000E+00
  0.00000000E+00  0.00000000E+00  0.00000000E+00
  0.00000000E+00  0.00000000E+00  0.00000000E+00
  0.00000000E+00  0.00000000E+00  0.00000000E+00
  0.00000000E+00  0.00000000E+00  0.00000000E+00
  0.00000000E+00  0.00000000E+00  0.00000000E+00
  0.00000000E+00  0.00000000E+00  0.00000000E+00
  0.00000000E+00  0.00000000E+00  0.00000000E+00
  0.00000000E+00  0.00000000E+00  0.00000000E+00
  0.00000000E+00  0.00000000E+00  0.00000000E+00
  0.00000000E+00  0.00000000E+00  0.00000000E+00
  0.00000000E+00  0.00000000E+00  0.00000000E+00
  0.00000000E+00  0.00000000E+00  0.00000000E+00
  0.00000000E+00  0.00000000E+00  0.00000000E+00
  0.00000000E+00  0.00000000E+00  0.00000000E+00
  0.00000000E+00  0.00000000E+00  0.00000000E+00
  0.00000000E+00  0.00000000E+00  0.00000000E+00
  0.00000000E+00  0.00000000E+00  0.00000000E+00
  0.00000000E+00  0.00000000E+00  0.00000000E+00
  0.00000000E+00  0.00000000E+00  0.00000000E+00
  0.00000000E+00  0.00000000E+00  0.00000000E+00
  0.00000000E+00  0.00000000E+00  0.00000000E+00
  0.00000000E+00  0.00000000E+00  0.00000000E+00
  0.00000000E+00  0.00000000E+00  0.00000000E+00
  0.00000000E+00  0.00000000E+00  0.00000000E+00
  0.00000000E+00  0.00000000E+00  0.00000000E+00
  0.00000000E+00  0.00000000E+00  0.00000000E+00
  0.00000000E+00  0.00000000E+00  0.00000000E+00
  0.00000000E+00  0.00000000E+00  0.00000000E+00
  0.00000000E+00  0.00000000E+00  0.00000000E+00
  0.00000000E+00  0.00000000E+00  0.00000000E+00
  0.00000000E+00  0.00000000E+00  0.00000000E+00
  0.00000000E+00  0.00000000E+00  0.00000000E+00
  0.00000000E+00  0.00000000E+00  0.00000000E+00
  0.00000000E+00  0.00000000E+00  0.00000000E+00
  0.00000000E+00  0.00000000E+00  0.00000000E+00
  0.00000000E+00  0.00000000E+00  0.00000000E+00
  0.00000000E+00  0.00000000E+00  0.00000000E+00
  0.00000000E+00  0.00000000E+00  0.00000000E+00
  0.00000000E+00  0.00000000E+00  0.00000000E+00
  0.00000000E+00  0.00000000E+00  0.00000000E+00
  0.00000000E+00  0.00000000E+00  0.00000000E+00
  0.00000000E+00  0.00000000E+00  0.00000000E+00
  0.00000000E+00  0.00000000E+00  0.00000000E+00
  0.00000000E+00  0.00000000E+00  0.00000000E+00
  0.00000000E+00  0.00000000E+00  0.00000000E+00
  0.00000000E+00  0.00000000E+00  0.00000000E+00
  0.00000000E+00  0.00000000E+00  0.00000000E+00
  0.00000000E+00  0.00000000E+00  0.00000000E+00
  0.00000000E+00  0.00000000E+00  0.00000000E+00
  0.00000000E+00  0.00000000E+00  0.00000000E+00
  0.00000000E+00  0.00000000E+00  0.00000000E+00
  0.00000000E+00  0.00000000E+00  0.00000000E+00
  0.00000000E+00  0.00000000E+00  0.00000000E+00
  0.00000000E+00  0.00000000E+00  0.00000000E+00
  0.00000000E+00  0.00000000E+00  0.00000000E+00
  0.00000000E+00  0.00000000E+00  0.00000000E+00
