H1 Ir32 O64                             
   1.00000000000000     
     6.3743804800000001    0.0000000000000000    0.0000000000000004
     0.0000000000000016   10.1020391709426818    0.0826870943907734
     0.0000000000000000    0.0000000000000000   40.9706790400000003
   H    Ir   O 
     1    32    64
Selective dynamics
Direct
  0.2500000000000000  0.3676673944061075  0.7265488917623646   T   T   T
  0.0000000000000000  0.3503849100000025  0.3340635200000008   F   F   F
  0.5000000000000000  0.3503849100000025  0.3340635200000008   F   F   F
  0.2500000000000000  0.1496150899999975  0.2909364799999992   F   F   F
  0.7500000000000000  0.1496150899999975  0.2909364799999992   F   F   F
  0.2500000000000000  0.3345320900000033  0.4118872999999965   F   F   F
  0.7500000000000000  0.3345320900000033  0.4118872999999965   F   F   F
  0.0000000000000000  0.1654679099999967  0.4631127000000035   F   F   F
  0.5000000000000000  0.1654679099999967  0.4631127000000035   F   F   F
  0.2500000000000000  0.8503849100000025  0.4590635200000008   F   F   F
  0.7500000000000000  0.8503849100000025  0.4590635200000008   F   F   F
  0.0000000000000000  0.6496150899999975  0.4159364799999992   F   F   F
  0.5000000000000000  0.6496150899999975  0.4159364799999992   F   F   F
  0.0000000000000000  0.8345320900000033  0.2868872999999965   F   F   F
  0.5000000000000000  0.8345320900000033  0.2868872999999965   F   F   F
  0.2500000000000000  0.6654679099999967  0.3381127000000035   F   F   F
  0.7500000000000000  0.6654679099999967  0.3381127000000035   F   F   F
 -0.0002128785613795  0.3525565963705590  0.5840330560189084   T   T   T
  0.5002128785613799  0.3525565963705590  0.5840330560189084   T   T   T
  0.2500000000000000  0.1515386504622268  0.5409897487959605   T   T   T
  0.7500000000000000  0.1513485676193583  0.5409382862583575   T   T   T
  0.2500000000000000  0.3325805037830711  0.6613093275346841   T   T   T
  0.7500000000000000  0.3324647172468265  0.6619359462343321   T   T   T
 -0.0045932699411778  0.1540634259000388  0.7127961187067030   T   T   T
  0.5045932699411778  0.1540634259000388  0.7127961187067030   T   T   T
  0.2500000000000000  0.8432509105014017  0.7121021897045804   T   T   T
  0.7500000000000000  0.8419503877284757  0.7120692684513935   T   T   T
 -0.0002591564162565  0.6489906795386091  0.6658289945049712   T   T   T
  0.5002591564162565  0.6489906795386091  0.6658289945049712   T   T   T
 -0.0000230203595198  0.8362892957622797  0.5369523601707969   T   T   T
  0.5000230203595200  0.8362892957622797  0.5369523601707969   T   T   T
  0.2500000000000000  0.6672903227214330  0.5880349359054222   T   T   T
  0.7500000000000000  0.6674074733473656  0.5881883083461609   T   T   T
  0.2500000000000000  0.3413040399999971  0.3638725499999964   F   F   F
  0.7500000000000000  0.3413040399999971  0.3638725499999964   F   F   F
  0.0000000000000000  0.1586959600000029  0.2611274499999965   F   F   F
  0.5000000000000000  0.1586959600000029  0.2611274499999965   F   F   F
  0.2500000000000000  0.3432976799999992  0.3026394400000001   F   F   F
  0.7500000000000000  0.3432976799999992  0.3026394400000001   F   F   F
  0.0000000000000000  0.1567023200000008  0.3223605599999999   F   F   F
  0.5000000000000000  0.1567023200000008  0.3223605599999999   F   F   F
  0.0000000000000000  0.5448724299999981  0.3370376000000022   F   F   F
  0.5000000000000000  0.5448724299999981  0.3370376000000022   F   F   F
  0.2500000000000000  0.9551275700000019  0.2879623999999978   F   F   F
  0.7500000000000000  0.9551275700000019  0.2879623999999978   F   F   F
  0.0000000000000000  0.2072168199999993  0.4147625000000019   F   F   F
  0.5000000000000000  0.2072168199999993  0.4147625000000019   F   F   F
  0.2500000000000000  0.2927831800000007  0.4602374999999981   F   F   F
  0.7500000000000000  0.2927831800000007  0.4602374999999981   F   F   F
  0.0000000000000000  0.8413040399999971  0.4888725499999964   F   F   F
  0.5000000000000000  0.8413040399999971  0.4888725499999964   F   F   F
  0.2500000000000000  0.6586959600000029  0.3861274499999965   F   F   F
  0.7500000000000000  0.6586959600000029  0.3861274499999965   F   F   F
  0.0000000000000000  0.8432976799999992  0.4276394400000001   F   F   F
  0.5000000000000000  0.8432976799999992  0.4276394400000001   F   F   F
  0.2500000000000000  0.6567023200000008  0.4473605599999999   F   F   F
  0.7500000000000000  0.6567023200000008  0.4473605599999999   F   F   F
  0.2500000000000000  0.0448724299999981  0.4620376000000022   F   F   F
  0.7500000000000000  0.0448724299999981  0.4620376000000022   F   F   F
  0.0000000000000000  0.4551275700000019  0.4129623999999978   F   F   F
  0.5000000000000000  0.4551275700000019  0.4129623999999978   F   F   F
  0.2500000000000000  0.7072168199999993  0.2897625000000019   F   F   F
  0.7500000000000000  0.7072168199999993  0.2897625000000019   F   F   F
  0.0000000000000000  0.7927831800000007  0.3352374999999981   F   F   F
  0.5000000000000000  0.7927831800000007  0.3352374999999981   F   F   F
  0.2500000000000000  0.3405267549929713  0.6135245504680689   T   T   T
  0.7500000000000000  0.3439516024702468  0.6139037074523679   T   T   T
  0.0000530720430107  0.1597568642221728  0.5112352046089804   T   T   T
  0.4999469279569891  0.1597568642221728  0.5112352046089804   T   T   T
  0.2500000000000000  0.3459352186046836  0.5524931103768467   T   T   T
  0.7500000000000000  0.3457215776022819  0.5525726326117621   T   T   T
 -0.0000495151248221  0.1589185769128849  0.5723219429845355   T   T   T
  0.5000495151248217  0.1589185769128849  0.5723219429845355   T   T   T
 -0.0002116180475393  0.5469155724254056  0.5868847627020461   T   T   T
  0.5002116180475394  0.5469155724254056  0.5868847627020461   T   T   T
  0.2500000000000000  0.9568335135516471  0.5380289180896056   T   T   T
  0.7500000000000000  0.9567950897574919  0.5380723546101162   T   T   T
  0.0033905829731420  0.2054455070457939  0.6644816298027714   T   T   T
  0.4966094170268582  0.2054455070457939  0.6644816298027714   T   T   T
  0.2500000000000000  0.2924336849663124  0.7116427828566597   T   T   T
  0.7500000000000000  0.2800457918144396  0.7100284565365498   T   T   T
  0.0002835740471045  0.8242105185755602  0.7401138089450413   T   T   T
  0.4997164259528953  0.8242105185755602  0.7401138089450413   T   T   T
  0.2500000000000000  0.6590138975290620  0.6363051420817970   T   T   T
  0.7500000000000000  0.6596043442939225  0.6363318538751264   T   T   T
 -0.0003625627606958  0.8380823302156702  0.6797444257269056   T   T   T
  0.5003625627606959  0.8380823302156702  0.6797444257269056   T   T   T
  0.2500000000000000  0.6513243304563809  0.6972097667850981   T   T   T
  0.7500000000000000  0.6502363298465671  0.6970978835131352   T   T   T
  0.2500000000000000  0.0384559376138778  0.7160096674943610   T   T   T
  0.7500000000000000  0.0381212260649948  0.7187775214495962   T   T   T
 -0.0008763553667423  0.4535780948745720  0.6630884707875336   T   T   T
  0.5008763553667420  0.4535780948745720  0.6630884707875336   T   T   T
  0.2500000000000000  0.7090305224659463  0.5397440176979147   T   T   T
  0.7500000000000000  0.7092122240829092  0.5398533560033153   T   T   T
 -0.0000394160783889  0.7944654842545763  0.5852838620872803   T   T   T
  0.5000394160783886  0.7944654842545763  0.5852838620872803   T   T   T
 
  0.00000000E+00  0.00000000E+00  0.00000000E+00
  0.00000000E+00  0.00000000E+00  0.00000000E+00
  0.00000000E+00  0.00000000E+00  0.00000000E+00
  0.00000000E+00  0.00000000E+00  0.00000000E+00
  0.00000000E+00  0.00000000E+00  0.00000000E+00
  0.00000000E+00  0.00000000E+00  0.00000000E+00
  0.00000000E+00  0.00000000E+00  0.00000000E+00
  0.00000000E+00  0.00000000E+00  0.00000000E+00
  0.00000000E+00  0.00000000E+00  0.00000000E+00
  0.00000000E+00  0.00000000E+00  0.00000000E+00
  0.00000000E+00  0.00000000E+00  0.00000000E+00
  0.00000000E+00  0.00000000E+00  0.00000000E+00
  0.00000000E+00  0.00000000E+00  0.00000000E+00
  0.00000000E+00  0.00000000E+00  0.00000000E+00
  0.00000000E+00  0.00000000E+00  0.00000000E+00
  0.00000000E+00  0.00000000E+00  0.00000000E+00
  0.00000000E+00  0.00000000E+00  0.00000000E+00
  0.00000000E+00  0.00000000E+00  0.00000000E+00
  0.00000000E+00  0.00000000E+00  0.00000000E+00
  0.00000000E+00  0.00000000E+00  0.00000000E+00
  0.00000000E+00  0.00000000E+00  0.00000000E+00
  0.00000000E+00  0.00000000E+00  0.00000000E+00
  0.00000000E+00  0.00000000E+00  0.00000000E+00
  0.00000000E+00  0.00000000E+00  0.00000000E+00
  0.00000000E+00  0.00000000E+00  0.00000000E+00
  0.00000000E+00  0.00000000E+00  0.00000000E+00
  0.00000000E+00  0.00000000E+00  0.00000000E+00
  0.00000000E+00  0.00000000E+00  0.00000000E+00
  0.00000000E+00  0.00000000E+00  0.00000000E+00
  0.00000000E+00  0.00000000E+00  0.00000000E+00
  0.00000000E+00  0.00000000E+00  0.00000000E+00
  0.00000000E+00  0.00000000E+00  0.00000000E+00
  0.00000000E+00  0.00000000E+00  0.00000000E+00
  0.00000000E+00  0.00000000E+00  0.00000000E+00
  0.00000000E+00  0.00000000E+00  0.00000000E+00
  0.00000000E+00  0.00000000E+00  0.00000000E+00
  0.00000000E+00  0.00000000E+00  0.00000000E+00
  0.00000000E+00  0.00000000E+00  0.00000000E+00
  0.00000000E+00  0.00000000E+00  0.00000000E+00
  0.00000000E+00  0.00000000E+00  0.00000000E+00
  0.00000000E+00  0.00000000E+00  0.00000000E+00
  0.00000000E+00  0.00000000E+00  0.00000000E+00
  0.00000000E+00  0.00000000E+00  0.00000000E+00
  0.00000000E+00  0.00000000E+00  0.00000000E+00
  0.00000000E+00  0.00000000E+00  0.00000000E+00
  0.00000000E+00  0.00000000E+00  0.00000000E+00
  0.00000000E+00  0.00000000E+00  0.00000000E+00
  0.00000000E+00  0.00000000E+00  0.00000000E+00
  0.00000000E+00  0.00000000E+00  0.00000000E+00
  0.00000000E+00  0.00000000E+00  0.00000000E+00
  0.00000000E+00  0.00000000E+00  0.00000000E+00
  0.00000000E+00  0.00000000E+00  0.00000000E+00
  0.00000000E+00  0.00000000E+00  0.00000000E+00
  0.00000000E+00  0.00000000E+00  0.00000000E+00
  0.00000000E+00  0.00000000E+00  0.00000000E+00
  0.00000000E+00  0.00000000E+00  0.00000000E+00
  0.00000000E+00  0.00000000E+00  0.00000000E+00
  0.00000000E+00  0.00000000E+00  0.00000000E+00
  0.00000000E+00  0.00000000E+00  0.00000000E+00
  0.00000000E+00  0.00000000E+00  0.00000000E+00
  0.00000000E+00  0.00000000E+00  0.00000000E+00
  0.00000000E+00  0.00000000E+00  0.00000000E+00
  0.00000000E+00  0.00000000E+00  0.00000000E+00
  0.00000000E+00  0.00000000E+00  0.00000000E+00
  0.00000000E+00  0.00000000E+00  0.00000000E+00
  0.00000000E+00  0.00000000E+00  0.00000000E+00
  0.00000000E+00  0.00000000E+00  0.00000000E+00
  0.00000000E+00  0.00000000E+00  0.00000000E+00
  0.00000000E+00  0.00000000E+00  0.00000000E+00
  0.00000000E+00  0.00000000E+00  0.00000000E+00
  0.00000000E+00  0.00000000E+00  0.00000000E+00
  0.00000000E+00  0.00000000E+00  0.00000000E+00
  0.00000000E+00  0.00000000E+00  0.00000000E+00
  0.00000000E+00  0.00000000E+00  0.00000000E+00
  0.00000000E+00  0.00000000E+00  0.00000000E+00
  0.00000000E+00  0.00000000E+00  0.00000000E+00
  0.00000000E+00  0.00000000E+00  0.00000000E+00
  0.00000000E+00  0.00000000E+00  0.00000000E+00
  0.00000000E+00  0.00000000E+00  0.00000000E+00
  0.00000000E+00  0.00000000E+00  0.00000000E+00
  0.00000000E+00  0.00000000E+00  0.00000000E+00
  0.00000000E+00  0.00000000E+00  0.00000000E+00
  0.00000000E+00  0.00000000E+00  0.00000000E+00
  0.00000000E+00  0.00000000E+00  0.00000000E+00
  0.00000000E+00  0.00000000E+00  0.00000000E+00
  0.00000000E+00  0.00000000E+00  0.00000000E+00
  0.00000000E+00  0.00000000E+00  0.00000000E+00
  0.00000000E+00  0.00000000E+00  0.00000000E+00
  0.00000000E+00  0.00000000E+00  0.00000000E+00
  0.00000000E+00  0.00000000E+00  0.00000000E+00
  0.00000000E+00  0.00000000E+00  0.00000000E+00
  0.00000000E+00  0.00000000E+00  0.00000000E+00
  0.00000000E+00  0.00000000E+00  0.00000000E+00
  0.00000000E+00  0.00000000E+00  0.00000000E+00
  0.00000000E+00  0.00000000E+00  0.00000000E+00
  0.00000000E+00  0.00000000E+00  0.00000000E+00
  0.00000000E+00  0.00000000E+00  0.00000000E+00
