 H Ir  O                                
   1.00000000000000     
     6.3790139999999997    0.0000000000000000    0.0000000000000004
     0.0000000000000010    6.4275143699999999    0.0000000000000004
     0.0000000000000000    0.0000000000000000   32.1375718700000021
   H    Ir   O 
     1    16    32
Selective dynamics
Direct
  0.7500579274730548  0.3065111634617843  0.6898686740227017   T   T   T
  0.2500465027811916  0.4937039884600117  0.5499231281062028   T   T   T
  0.7500569338639848  0.4940599221147514  0.5498239176368266   T   T   T
  0.2500888474221191  0.0190873592432914  0.6505861895023997   T   T   T
  0.7500782010582564 -0.0024365355355952  0.6502683308916215   T   T   T
  0.0058397931975879  0.5207904484324918  0.6488598177367818   T   T   T
  0.4943609702212677  0.5207937152904365  0.6488597046156542   T   T   T
  0.0001539248345906 -0.0048412509907583  0.5503857948100405   T   T   T
  0.4999367977439018 -0.0048377109720680  0.5503860012577159   T   T   T
  0.2500000000000000  0.5000000000000000  0.3500000000000014   F   F   F
  0.7500000000000000  0.5000000000000000  0.3500000000000014   F   F   F
  0.2500000000000000  0.0000000000000000  0.4500000000000028   F   F   F
  0.7500000000000000  0.0000000000000000  0.4500000000000028   F   F   F
  0.0000000000000000  0.5000000000000000  0.4500000000000028   F   F   F
  0.5000000000000000  0.5000000000000000  0.4500000000000028   F   F   F
  0.0000000000000000  0.0000000000000000  0.3500000000000014   F   F   F
  0.5000000000000000  0.0000000000000000  0.3500000000000014   F   F   F
 -0.0019449488422290  0.4644606252675650  0.5879428671925827   T   T   T
  0.5020569701067141  0.4644673188591947  0.5879435742570872   T   T   T
 -0.0010545324449291  0.0086780011730309  0.6875916474541008   T   T   T
  0.5012201243943107  0.0087159725000806  0.6875915422731814   T   T   T
  0.2500509472033816  0.8021082350127284  0.5515995522011419   T   T   T
  0.7500467180654251  0.8022350920671029  0.5516643960140630   T   T   T
  0.2500938327803653  0.3294844228620902  0.6544992524309594   T   T   T
  0.7500892133160564  0.3182402247359838  0.6593272052064580   T   T   T
  0.0002557354570637  0.5041931903596556  0.5114022573852907   T   T   T
  0.4998290947060313  0.5041946525643105  0.5114013885292252   T   T   T
  0.0000025945651306  0.0057647554156226  0.6118087975464335   T   T   T
  0.5001494968484378  0.0057877445018760  0.6118094982923514   T   T   T
  0.2500484909963679  0.1853062782947388  0.5490902459548779   T   T   T
  0.7500497137516168  0.1854521087304746  0.5486435976435080   T   T   T
  0.2500975384222250  0.7091753271062126  0.6522931182702956   T   T   T
  0.7501028059084646  0.6977886171345861  0.6514480133713995   T   T   T
  0.0000000000000000  0.5000000000000000  0.3883292000000012   F   F   F
  0.5000000000000000  0.5000000000000000  0.3883292000000012   F   F   F
  0.0000000000000000  0.0000000000000000  0.4883292000000026   F   F   F
  0.5000000000000000  0.0000000000000000  0.4883292000000026   F   F   F
  0.2500000000000000  0.8083540000000013  0.3500000000000014   F   F   F
  0.7500000000000000  0.8083540000000013  0.3500000000000014   F   F   F
  0.2500000000000000  0.3083540000000013  0.4500000000000028   F   F   F
  0.7500000000000000  0.3083540000000013  0.4500000000000028   F   F   F
  0.0000000000000000  0.5000000000000000  0.3116708000000017   F   F   F
  0.5000000000000000  0.5000000000000000  0.3116708000000017   F   F   F
  0.0000000000000000  0.0000000000000000  0.4116708000000031   F   F   F
  0.5000000000000000  0.0000000000000000  0.4116708000000031   F   F   F
  0.2500000000000000  0.1916459999999987  0.3500000000000014   F   F   F
  0.7500000000000000  0.1916459999999987  0.3500000000000014   F   F   F
  0.2500000000000000  0.6916459999999987  0.4500000000000028   F   F   F
  0.7500000000000000  0.6916459999999987  0.4500000000000028   F   F   F
 
  0.00000000E+00  0.00000000E+00  0.00000000E+00
  0.00000000E+00  0.00000000E+00  0.00000000E+00
  0.00000000E+00  0.00000000E+00  0.00000000E+00
  0.00000000E+00  0.00000000E+00  0.00000000E+00
  0.00000000E+00  0.00000000E+00  0.00000000E+00
  0.00000000E+00  0.00000000E+00  0.00000000E+00
  0.00000000E+00  0.00000000E+00  0.00000000E+00
  0.00000000E+00  0.00000000E+00  0.00000000E+00
  0.00000000E+00  0.00000000E+00  0.00000000E+00
  0.00000000E+00  0.00000000E+00  0.00000000E+00
  0.00000000E+00  0.00000000E+00  0.00000000E+00
  0.00000000E+00  0.00000000E+00  0.00000000E+00
  0.00000000E+00  0.00000000E+00  0.00000000E+00
  0.00000000E+00  0.00000000E+00  0.00000000E+00
  0.00000000E+00  0.00000000E+00  0.00000000E+00
  0.00000000E+00  0.00000000E+00  0.00000000E+00
  0.00000000E+00  0.00000000E+00  0.00000000E+00
  0.00000000E+00  0.00000000E+00  0.00000000E+00
  0.00000000E+00  0.00000000E+00  0.00000000E+00
  0.00000000E+00  0.00000000E+00  0.00000000E+00
  0.00000000E+00  0.00000000E+00  0.00000000E+00
  0.00000000E+00  0.00000000E+00  0.00000000E+00
  0.00000000E+00  0.00000000E+00  0.00000000E+00
  0.00000000E+00  0.00000000E+00  0.00000000E+00
  0.00000000E+00  0.00000000E+00  0.00000000E+00
  0.00000000E+00  0.00000000E+00  0.00000000E+00
  0.00000000E+00  0.00000000E+00  0.00000000E+00
  0.00000000E+00  0.00000000E+00  0.00000000E+00
  0.00000000E+00  0.00000000E+00  0.00000000E+00
  0.00000000E+00  0.00000000E+00  0.00000000E+00
  0.00000000E+00  0.00000000E+00  0.00000000E+00
  0.00000000E+00  0.00000000E+00  0.00000000E+00
  0.00000000E+00  0.00000000E+00  0.00000000E+00
  0.00000000E+00  0.00000000E+00  0.00000000E+00
  0.00000000E+00  0.00000000E+00  0.00000000E+00
  0.00000000E+00  0.00000000E+00  0.00000000E+00
  0.00000000E+00  0.00000000E+00  0.00000000E+00
  0.00000000E+00  0.00000000E+00  0.00000000E+00
  0.00000000E+00  0.00000000E+00  0.00000000E+00
  0.00000000E+00  0.00000000E+00  0.00000000E+00
  0.00000000E+00  0.00000000E+00  0.00000000E+00
  0.00000000E+00  0.00000000E+00  0.00000000E+00
  0.00000000E+00  0.00000000E+00  0.00000000E+00
  0.00000000E+00  0.00000000E+00  0.00000000E+00
  0.00000000E+00  0.00000000E+00  0.00000000E+00
  0.00000000E+00  0.00000000E+00  0.00000000E+00
  0.00000000E+00  0.00000000E+00  0.00000000E+00
  0.00000000E+00  0.00000000E+00  0.00000000E+00
  0.00000000E+00  0.00000000E+00  0.00000000E+00
