H1 Ir32 O64                             
   1.00000000000000     
    10.1023775699999998    0.0000000000000000    0.0000000000000006
     0.0838353739394686   10.2423266615791402    0.0000000000000006
     0.0000000000000000    0.0000000000000000   28.6847121700000010
   H    Ir   O 
     1    32    64
Selective dynamics
Direct
  0.5893259983014494  0.3511490219616643  0.7248785832952257   T   T   T
  0.6496150899999975  0.6637459000000021  0.3611111100000031   F   F   F
  0.8503849100000025  0.8362540999999979  0.3055555600000019   F   F   F
  0.6654679099999967  0.3524508100000006  0.3055555600000019   F   F   F
  0.8345320900000033  0.1475491899999994  0.3611111100000031   F   F   F
  0.1496150899999975  0.1637459000000021  0.3055555600000019   F   F   F
  0.3503849100000025  0.3362540999999979  0.3611111100000031   F   F   F
  0.1654679099999967  0.8524508100000006  0.3611111100000031   F   F   F
  0.3345320900000033  0.6475491899999994  0.3055555600000019   F   F   F
  0.6496150899999975  0.6637459000000021  0.4722222199999990   F   F   F
  0.8503849100000025  0.8362540999999979  0.4166666699999979   F   F   F
  0.6654679099999967  0.3524508100000006  0.4166666699999979   F   F   F
  0.8345320900000033  0.1475491899999994  0.4722222199999990   F   F   F
  0.1496150899999975  0.1637459000000021  0.4166666699999979   F   F   F
  0.3503849100000025  0.3362540999999979  0.4722222199999990   F   F   F
  0.1654679099999967  0.8524508100000006  0.4722222199999990   F   F   F
  0.3345320900000033  0.6475491899999994  0.4166666699999979   F   F   F
  0.6481848443001591  0.6625476721769892  0.5820444335952375   T   T   T
  0.8494177183016469  0.8353668478080992  0.5284183214988613   T   T   T
  0.6657832821023321  0.3508511406771554  0.5281169279932665   T   T   T
  0.8347307777269636  0.1451777784669765  0.5818622236624549   T   T   T
  0.1507430527387229  0.1643711838544050  0.5286228656160910   T   T   T
  0.3515667318217159  0.3376104867453786  0.5834003273243211   T   T   T
  0.1639855248638968  0.8534905853879229  0.5822762968600773   T   T   T
  0.3340362186516232  0.6482006919881895  0.5285932614935359   T   T   T
  0.6380882868048582  0.6539644471991267  0.6893680573167235   T   T   T
  0.8424494232161831  0.8329626595207279  0.6420485330211610   T   T   T
  0.6680781943251076  0.3450706831723200  0.6402430965716227   T   T   T
  0.8405713829445493  0.1351891919889339  0.6893768084239210   T   T   T
  0.1521620358033250  0.1663395285471065  0.6418315981831609   T   T   T
  0.3369402267089516  0.3480106578497138  0.6916355187171509   T   T   T
  0.1552788127209025  0.8641880207221135  0.6896617114735762   T   T   T
  0.3326849280457254  0.6554721329450967  0.6425036531979547   T   T   T
  0.6586959600000029  0.5445098000000002  0.3055555600000019   F   F   F
  0.8413040399999971  0.9554901999999998  0.3611111100000031   F   F   F
  0.6567023200000008  0.7894422399999996  0.3055555600000019   F   F   F
  0.8432976799999992  0.7105577600000004  0.3611111100000031   F   F   F
  0.4551275700000019  0.6518496099999993  0.3611111100000031   F   F   F
  0.0448724299999981  0.8481503900000007  0.3055555600000019   F   F   F
  0.7927831800000007  0.3409499799999978  0.3611111100000031   F   F   F
  0.7072168199999993  0.1590500200000022  0.3055555600000019   F   F   F
  0.1586959600000029  0.0445098000000002  0.3611111100000031   F   F   F
  0.3413040399999971  0.4554901999999998  0.3055555600000019   F   F   F
  0.1567023200000008  0.2894422399999996  0.3611111100000031   F   F   F
  0.3432976799999992  0.2105577600000004  0.3055555600000019   F   F   F
  0.9551275700000019  0.1518496099999993  0.3055555600000019   F   F   F
  0.5448724299999981  0.3481503900000007  0.3611111100000031   F   F   F
  0.2927831800000007  0.8409499799999978  0.3055555600000019   F   F   F
  0.2072168199999993  0.6590500200000022  0.3611111100000031   F   F   F
  0.6586959600000029  0.5445098000000002  0.4166666699999979   F   F   F
  0.8413040399999971  0.9554901999999998  0.4722222199999990   F   F   F
  0.6567023200000008  0.7894422399999996  0.4166666699999979   F   F   F
  0.8432976799999992  0.7105577600000004  0.4722222199999990   F   F   F
  0.4551275700000019  0.6518496099999993  0.4722222199999990   F   F   F
  0.0448724299999981  0.8481503900000007  0.4166666699999979   F   F   F
  0.7927831800000007  0.3409499799999978  0.4722222199999990   F   F   F
  0.7072168199999993  0.1590500200000022  0.4166666699999979   F   F   F
  0.1586959600000029  0.0445098000000002  0.4722222199999990   F   F   F
  0.3413040399999971  0.4554901999999998  0.4166666699999979   F   F   F
  0.1567023200000008  0.2894422399999996  0.4722222199999990   F   F   F
  0.3432976799999992  0.2105577600000004  0.4166666699999979   F   F   F
  0.9551275700000019  0.1518496099999993  0.4166666699999979   F   F   F
  0.5448724299999981  0.3481503900000007  0.4722222199999990   F   F   F
  0.2927831800000007  0.8409499799999978  0.4166666699999979   F   F   F
  0.2072168199999993  0.6590500200000022  0.4722222199999990   F   F   F
  0.6588037288580023  0.5440918869621374  0.5276412022028111   T   T   T
  0.8421344614624376  0.9530673040570301  0.5840312564362541   T   T   T
  0.6543710950549845  0.7907598166812733  0.5276498922520296   T   T   T
  0.8410157000508837  0.7098127797042610  0.5835948787193902   T   T   T
  0.4538574616909061  0.6519435819850508  0.5841676124475166   T   T   T
  0.0444809325570965  0.8474635837226998  0.5277377142788972   T   T   T
  0.7931598252569585  0.3383826125977376  0.5836077048079519   T   T   T
  0.7053184365231772  0.1561058503988181  0.5274675752800749   T   T   T
  0.1580196961841755  0.0459232026651385  0.5845151839058998   T   T   T
  0.3413415445600364  0.4550044346015987  0.5280934027649140   T   T   T
  0.1583783436648199  0.2900555863660383  0.5842128318867261   T   T   T
  0.3448641911866546  0.2106098403073375  0.5284241677491338   T   T   T
  0.9556231225227635  0.1518885253175520  0.5276305168707467   T   T   T
  0.5463006478156364  0.3474254211755551  0.5835986614346290   T   T   T
  0.2937799127996836  0.8425901282874121  0.5278428465161797   T   T   T
  0.2080010064802768  0.6616149472355972  0.5840882579459832   T   T   T
  0.6626573176841507  0.5368982030146118  0.6378450584219022   T   T   T
  0.8468809565264780  0.9552952498819545  0.6962336023551233   T   T   T
  0.6501689881330648  0.7896125222083777  0.6374302704355432   T   T   T
  0.8170778939620854  0.7086842646203735  0.6943641613455870   T   T   T
  0.4563757021253304  0.6469531089471362  0.6971237969966039   T   T   T
  0.0369529619666682  0.8451288833683128  0.6382976892354792   T   T   T
  0.7866895437879445  0.3149138799618283  0.6946666891736931   T   T   T
  0.7060189776796491  0.1526307335255298  0.6370014769690033   T   T   T
  0.1472031771260970  0.0446458410632712  0.6967985860336668   T   T   T
  0.3493920675739090  0.4636222560709867  0.6391176773355757   T   T   T
  0.1599599219074643  0.2967304361677333  0.6931743940720186   T   T   T
  0.3468900294735032  0.2127984590602894  0.6409347807854294   T   T   T
  0.9591653995691841  0.1558218336818150  0.6378257891034917   T   T   T
  0.5380424489592200  0.3465162877141450  0.6960383790204983   T   T   T
  0.2920496309859515  0.8476694429706707  0.6381612102043586   T   T   T
  0.2071909233461061  0.6850898711118099  0.6946308844475328   T   T   T
 
  0.00000000E+00  0.00000000E+00  0.00000000E+00
  0.00000000E+00  0.00000000E+00  0.00000000E+00
  0.00000000E+00  0.00000000E+00  0.00000000E+00
  0.00000000E+00  0.00000000E+00  0.00000000E+00
  0.00000000E+00  0.00000000E+00  0.00000000E+00
  0.00000000E+00  0.00000000E+00  0.00000000E+00
  0.00000000E+00  0.00000000E+00  0.00000000E+00
  0.00000000E+00  0.00000000E+00  0.00000000E+00
  0.00000000E+00  0.00000000E+00  0.00000000E+00
  0.00000000E+00  0.00000000E+00  0.00000000E+00
  0.00000000E+00  0.00000000E+00  0.00000000E+00
  0.00000000E+00  0.00000000E+00  0.00000000E+00
  0.00000000E+00  0.00000000E+00  0.00000000E+00
  0.00000000E+00  0.00000000E+00  0.00000000E+00
  0.00000000E+00  0.00000000E+00  0.00000000E+00
  0.00000000E+00  0.00000000E+00  0.00000000E+00
  0.00000000E+00  0.00000000E+00  0.00000000E+00
  0.00000000E+00  0.00000000E+00  0.00000000E+00
  0.00000000E+00  0.00000000E+00  0.00000000E+00
  0.00000000E+00  0.00000000E+00  0.00000000E+00
  0.00000000E+00  0.00000000E+00  0.00000000E+00
  0.00000000E+00  0.00000000E+00  0.00000000E+00
  0.00000000E+00  0.00000000E+00  0.00000000E+00
  0.00000000E+00  0.00000000E+00  0.00000000E+00
  0.00000000E+00  0.00000000E+00  0.00000000E+00
  0.00000000E+00  0.00000000E+00  0.00000000E+00
  0.00000000E+00  0.00000000E+00  0.00000000E+00
  0.00000000E+00  0.00000000E+00  0.00000000E+00
  0.00000000E+00  0.00000000E+00  0.00000000E+00
  0.00000000E+00  0.00000000E+00  0.00000000E+00
  0.00000000E+00  0.00000000E+00  0.00000000E+00
  0.00000000E+00  0.00000000E+00  0.00000000E+00
  0.00000000E+00  0.00000000E+00  0.00000000E+00
  0.00000000E+00  0.00000000E+00  0.00000000E+00
  0.00000000E+00  0.00000000E+00  0.00000000E+00
  0.00000000E+00  0.00000000E+00  0.00000000E+00
  0.00000000E+00  0.00000000E+00  0.00000000E+00
  0.00000000E+00  0.00000000E+00  0.00000000E+00
  0.00000000E+00  0.00000000E+00  0.00000000E+00
  0.00000000E+00  0.00000000E+00  0.00000000E+00
  0.00000000E+00  0.00000000E+00  0.00000000E+00
  0.00000000E+00  0.00000000E+00  0.00000000E+00
  0.00000000E+00  0.00000000E+00  0.00000000E+00
  0.00000000E+00  0.00000000E+00  0.00000000E+00
  0.00000000E+00  0.00000000E+00  0.00000000E+00
  0.00000000E+00  0.00000000E+00  0.00000000E+00
  0.00000000E+00  0.00000000E+00  0.00000000E+00
  0.00000000E+00  0.00000000E+00  0.00000000E+00
  0.00000000E+00  0.00000000E+00  0.00000000E+00
  0.00000000E+00  0.00000000E+00  0.00000000E+00
  0.00000000E+00  0.00000000E+00  0.00000000E+00
  0.00000000E+00  0.00000000E+00  0.00000000E+00
  0.00000000E+00  0.00000000E+00  0.00000000E+00
  0.00000000E+00  0.00000000E+00  0.00000000E+00
  0.00000000E+00  0.00000000E+00  0.00000000E+00
  0.00000000E+00  0.00000000E+00  0.00000000E+00
  0.00000000E+00  0.00000000E+00  0.00000000E+00
  0.00000000E+00  0.00000000E+00  0.00000000E+00
  0.00000000E+00  0.00000000E+00  0.00000000E+00
  0.00000000E+00  0.00000000E+00  0.00000000E+00
  0.00000000E+00  0.00000000E+00  0.00000000E+00
  0.00000000E+00  0.00000000E+00  0.00000000E+00
  0.00000000E+00  0.00000000E+00  0.00000000E+00
  0.00000000E+00  0.00000000E+00  0.00000000E+00
  0.00000000E+00  0.00000000E+00  0.00000000E+00
  0.00000000E+00  0.00000000E+00  0.00000000E+00
  0.00000000E+00  0.00000000E+00  0.00000000E+00
  0.00000000E+00  0.00000000E+00  0.00000000E+00
  0.00000000E+00  0.00000000E+00  0.00000000E+00
  0.00000000E+00  0.00000000E+00  0.00000000E+00
  0.00000000E+00  0.00000000E+00  0.00000000E+00
  0.00000000E+00  0.00000000E+00  0.00000000E+00
  0.00000000E+00  0.00000000E+00  0.00000000E+00
  0.00000000E+00  0.00000000E+00  0.00000000E+00
  0.00000000E+00  0.00000000E+00  0.00000000E+00
  0.00000000E+00  0.00000000E+00  0.00000000E+00
  0.00000000E+00  0.00000000E+00  0.00000000E+00
  0.00000000E+00  0.00000000E+00  0.00000000E+00
  0.00000000E+00  0.00000000E+00  0.00000000E+00
  0.00000000E+00  0.00000000E+00  0.00000000E+00
  0.00000000E+00  0.00000000E+00  0.00000000E+00
  0.00000000E+00  0.00000000E+00  0.00000000E+00
  0.00000000E+00  0.00000000E+00  0.00000000E+00
  0.00000000E+00  0.00000000E+00  0.00000000E+00
  0.00000000E+00  0.00000000E+00  0.00000000E+00
  0.00000000E+00  0.00000000E+00  0.00000000E+00
  0.00000000E+00  0.00000000E+00  0.00000000E+00
  0.00000000E+00  0.00000000E+00  0.00000000E+00
  0.00000000E+00  0.00000000E+00  0.00000000E+00
  0.00000000E+00  0.00000000E+00  0.00000000E+00
  0.00000000E+00  0.00000000E+00  0.00000000E+00
  0.00000000E+00  0.00000000E+00  0.00000000E+00
  0.00000000E+00  0.00000000E+00  0.00000000E+00
  0.00000000E+00  0.00000000E+00  0.00000000E+00
  0.00000000E+00  0.00000000E+00  0.00000000E+00
  0.00000000E+00  0.00000000E+00  0.00000000E+00
  0.00000000E+00  0.00000000E+00  0.00000000E+00
