H1 Ir20 O40                             
   1.00000000000000     
     6.3734181999999997    0.0000000000000000    0.0000000000000004
     0.0000000000000016    9.9705133323336028   -0.2062989497618046
     0.0000000000000000    0.0000000000000000   42.6914438100000027
   H    Ir   O 
     1    20    40
Selective dynamics
Direct
  0.2500000000000000  0.6035132713353719  0.6796214150181822   T   T   T
  0.0000000000000000  0.2715876399999999  0.4193683800000017   F   F   F
  0.5000000000000000  0.2715876399999999  0.4193683800000017   F   F   F
  0.2500000000000000  0.7277866713023845  0.5813232910146168   T   T   T
  0.7500000000000000  0.7276822736696942  0.5811950847757982   T   T   T
  0.0000845289411211  0.4845337118885690  0.5316745178117631   T   T   T
  0.4999154710588787  0.4845337118885690  0.5316745178117631   T   T   T
  0.2500000000000000  0.5157798299999996  0.4687655000000035   F   F   F
  0.7500000000000000  0.5157798299999996  0.4687655000000035   F   F   F
  0.0003383083748959  0.0021034127073298  0.5821278513739243   T   T   T
  0.4996616916251040  0.0021034127073298  0.5821278513739243   T   T   T
  0.2500000000000000  0.2706728988717577  0.5858560370469669   T   T   T
  0.7500000000000000  0.2681455375201519  0.5853118495228042   T   T   T
  0.0000000000000000  0.7284123600000001  0.4139649600000013   F   F   F
  0.5000000000000000  0.7284123600000001  0.4139649600000013   F   F   F
  0.2500000000000000  0.4842201700000004  0.3645678299999986   F   F   F
  0.7500000000000000  0.4842201700000004  0.3645678299999986   F   F   F
 -0.0058137709321351  0.5127976755520340  0.6351698979461921   T   T   T
  0.5058137709321352  0.5127976755520340  0.6351698979461921   T   T   T
  0.2500000000000000  0.0000000000000000  0.4166666699999979   F   F   F
  0.7500000000000000  0.0000000000000000  0.4166666699999979   F   F   F
 -0.0006925168099824  0.3478371523426011  0.5643463470042280   T   T   T
  0.5006925168099824  0.3478371523426011  0.5643463470042351   T   T   T
  0.2500000000000000  0.6529364399999977  0.4361321200000035   F   F   F
  0.7500000000000000  0.6529364399999977  0.4361321200000035   F   F   F
  0.0004966030879417  0.8191018853973069  0.5600387070382464   T   T   T
  0.4995033969120584  0.8191018853973069  0.5600387070382464   T   T   T
  0.2500000000000000  0.1809147499999995  0.4403036100000008   F   F   F
  0.7500000000000000  0.1809147499999995  0.4403036100000008   F   F   F
  0.2500000000000000  0.0956312895707941  0.5614243584969640   T   T   T
  0.7500000000000000  0.0931495339662495  0.5611541051442456   T   T   T
  0.0000000000000000  0.9056086000000008  0.4364558199999991   F   F   F
  0.5000000000000000  0.9056086000000008  0.4364558199999991   F   F   F
  0.2500000000000000  0.5701692481869548  0.5529731916642439   T   T   T
  0.7500000000000000  0.5700817878563994  0.5527334348226165   T   T   T
  0.0000000000000000  0.4271300300000007  0.4486588999999981   F   F   F
  0.5000000000000000  0.4271300300000007  0.4486588999999981   F   F   F
  0.2500000000000000  0.4042978040784999  0.5076744354362519   T   T   T
  0.7500000000000000  0.4035577377969039  0.5075851710770189   T   T   T
  0.0000000000000000  0.5976074699999998  0.4925246999999970   F   F   F
  0.5000000000000000  0.5976074699999998  0.4925246999999970   F   F   F
  0.2500000000000000  0.3470635600000023  0.3972012099999986   F   F   F
  0.7500000000000000  0.3470635600000023  0.3972012099999986   F   F   F
 -0.0004909042967790  0.6715617613801171  0.6075149128906072   T   T   T
  0.5004909042967790  0.6715617613801171  0.6075149128906072   T   T   T
  0.2500000000000000  0.8190852500000005  0.3930297300000021   F   F   F
  0.7500000000000000  0.8190852500000005  0.3930297300000021   F   F   F
  0.0003748451617770  0.1802346148942152  0.6068585095109027   T   T   T
  0.4996251548382230  0.1802346148942152  0.6068585095109027   T   T   T
  0.0000000000000000  0.0943913999999992  0.3968775100000030   F   F   F
  0.5000000000000000  0.0943913999999992  0.3968775100000030   F   F   F
  0.2500000000000000  0.9099900595666885  0.6018652262098949   T   T   T
  0.7500000000000000  0.9098963328952682  0.6016792176576330   T   T   T
  0.0000000000000000  0.5728699699999993  0.3846744299999969   F   F   F
  0.5000000000000000  0.5728699699999993  0.3846744299999969   F   F   F
  0.2500000000000000  0.4245509962967208  0.6164195251963085   T   T   T
  0.7500000000000000  0.4117423711695257  0.6176148376003404   T   T   T
  0.0000000000000000  0.4023925300000002  0.3408086299999979   F   F   F
  0.5000000000000000  0.4023925300000002  0.3408086299999979   F   F   F
  0.2500000000000000  0.6092066183088345  0.6568570550212816   T   T   T
  0.7500000000000000  0.5793160052826407  0.6579091883970867   T   T   T
 
  0.00000000E+00  0.00000000E+00  0.00000000E+00
  0.00000000E+00  0.00000000E+00  0.00000000E+00
  0.00000000E+00  0.00000000E+00  0.00000000E+00
  0.00000000E+00  0.00000000E+00  0.00000000E+00
  0.00000000E+00  0.00000000E+00  0.00000000E+00
  0.00000000E+00  0.00000000E+00  0.00000000E+00
  0.00000000E+00  0.00000000E+00  0.00000000E+00
  0.00000000E+00  0.00000000E+00  0.00000000E+00
  0.00000000E+00  0.00000000E+00  0.00000000E+00
  0.00000000E+00  0.00000000E+00  0.00000000E+00
  0.00000000E+00  0.00000000E+00  0.00000000E+00
  0.00000000E+00  0.00000000E+00  0.00000000E+00
  0.00000000E+00  0.00000000E+00  0.00000000E+00
  0.00000000E+00  0.00000000E+00  0.00000000E+00
  0.00000000E+00  0.00000000E+00  0.00000000E+00
  0.00000000E+00  0.00000000E+00  0.00000000E+00
  0.00000000E+00  0.00000000E+00  0.00000000E+00
  0.00000000E+00  0.00000000E+00  0.00000000E+00
  0.00000000E+00  0.00000000E+00  0.00000000E+00
  0.00000000E+00  0.00000000E+00  0.00000000E+00
  0.00000000E+00  0.00000000E+00  0.00000000E+00
  0.00000000E+00  0.00000000E+00  0.00000000E+00
  0.00000000E+00  0.00000000E+00  0.00000000E+00
  0.00000000E+00  0.00000000E+00  0.00000000E+00
  0.00000000E+00  0.00000000E+00  0.00000000E+00
  0.00000000E+00  0.00000000E+00  0.00000000E+00
  0.00000000E+00  0.00000000E+00  0.00000000E+00
  0.00000000E+00  0.00000000E+00  0.00000000E+00
  0.00000000E+00  0.00000000E+00  0.00000000E+00
  0.00000000E+00  0.00000000E+00  0.00000000E+00
  0.00000000E+00  0.00000000E+00  0.00000000E+00
  0.00000000E+00  0.00000000E+00  0.00000000E+00
  0.00000000E+00  0.00000000E+00  0.00000000E+00
  0.00000000E+00  0.00000000E+00  0.00000000E+00
  0.00000000E+00  0.00000000E+00  0.00000000E+00
  0.00000000E+00  0.00000000E+00  0.00000000E+00
  0.00000000E+00  0.00000000E+00  0.00000000E+00
  0.00000000E+00  0.00000000E+00  0.00000000E+00
  0.00000000E+00  0.00000000E+00  0.00000000E+00
  0.00000000E+00  0.00000000E+00  0.00000000E+00
  0.00000000E+00  0.00000000E+00  0.00000000E+00
  0.00000000E+00  0.00000000E+00  0.00000000E+00
  0.00000000E+00  0.00000000E+00  0.00000000E+00
  0.00000000E+00  0.00000000E+00  0.00000000E+00
  0.00000000E+00  0.00000000E+00  0.00000000E+00
  0.00000000E+00  0.00000000E+00  0.00000000E+00
  0.00000000E+00  0.00000000E+00  0.00000000E+00
  0.00000000E+00  0.00000000E+00  0.00000000E+00
  0.00000000E+00  0.00000000E+00  0.00000000E+00
  0.00000000E+00  0.00000000E+00  0.00000000E+00
  0.00000000E+00  0.00000000E+00  0.00000000E+00
  0.00000000E+00  0.00000000E+00  0.00000000E+00
  0.00000000E+00  0.00000000E+00  0.00000000E+00
  0.00000000E+00  0.00000000E+00  0.00000000E+00
  0.00000000E+00  0.00000000E+00  0.00000000E+00
  0.00000000E+00  0.00000000E+00  0.00000000E+00
  0.00000000E+00  0.00000000E+00  0.00000000E+00
  0.00000000E+00  0.00000000E+00  0.00000000E+00
  0.00000000E+00  0.00000000E+00  0.00000000E+00
  0.00000000E+00  0.00000000E+00  0.00000000E+00
  0.00000000E+00  0.00000000E+00  0.00000000E+00
