Ir15 O32                                
   1.00000000000000     
     6.3790139999999997    0.0000000000000000    0.0000000000000004
     0.0000000000000010    6.4275143699999999    0.0000000000000004
     0.0000000000000000    0.0000000000000000   32.1375718700000021
   Ir   O 
    15    32
Selective dynamics
Direct
  0.2438891118476293  0.5000000000000000  0.5496544788952167   T   T   T
  0.7561108881523707  0.5000000000000000  0.5496544788952167   T   T   T
  0.2526840886008601 -0.0000000000000000  0.6519028828828136   T   T   T
  0.7473159113991399 -0.0000000000000000  0.6519028828828136   T   T   T
  0.5000000000000000  0.5000000000000000  0.6469057705634578   T   T   T
  0.0000000000000000 -0.0000000000000000  0.5507234029808372   T   T   T
  0.5000000000000000 -0.0000000000000000  0.5505422467649667   T   T   T
  0.2500000000000000  0.5000000000000000  0.3500000000000014   F   F   F
  0.7500000000000000  0.5000000000000000  0.3500000000000014   F   F   F
  0.2500000000000000  0.0000000000000000  0.4500000000000028   F   F   F
  0.7500000000000000  0.0000000000000000  0.4500000000000028   F   F   F
  0.0000000000000000  0.5000000000000000  0.4500000000000028   F   F   F
  0.5000000000000000  0.5000000000000000  0.4500000000000028   F   F   F
  0.0000000000000000  0.0000000000000000  0.3500000000000014   F   F   F
  0.5000000000000000  0.0000000000000000  0.3500000000000014   F   F   F
  0.0000000000000000  0.5000000000000000  0.5866982504373551   T   T   T
  0.5000000000000000  0.5000000000000000  0.5866031149447247   T   T   T
  0.0000000000000000 -0.0000000000000000  0.6876711607237070   T   T   T
  0.5000000000000000 -0.0000000000000000  0.6897658260500567   T   T   T
  0.2492079610719444  0.8082828666585287  0.5499678529203295   T   T   T
  0.7507920389280558  0.8082828666585287  0.5499678529203295   T   T   T
  0.2776728065259812  0.2956183398329311  0.6509897281399563   T   T   T
  0.7223271934740189  0.2956183398329311  0.6509897281399563   T   T   T
  0.0000000000000000  0.5000000000000000  0.5109722728361418   T   T   T
  0.5000000000000000  0.5000000000000000  0.5115356264535403   T   T   T
  0.0000000000000000 -0.0000000000000000  0.6124285310571062   T   T   T
  0.5000000000000000 -0.0000000000000000  0.6118920326441034   T   T   T
  0.2492079610719444  0.1917171333414714  0.5499678529203295   T   T   T
  0.7507920389280558  0.1917171333414714  0.5499678529203295   T   T   T
  0.2776728065259812  0.7043816601670687  0.6509897281399563   T   T   T
  0.7223271934740189  0.7043816601670687  0.6509897281399563   T   T   T
  0.0000000000000000  0.5000000000000000  0.3883292000000012   F   F   F
  0.5000000000000000  0.5000000000000000  0.3883292000000012   F   F   F
  0.0000000000000000  0.0000000000000000  0.4883292000000026   F   F   F
  0.5000000000000000  0.0000000000000000  0.4883292000000026   F   F   F
  0.2500000000000000  0.8083540000000013  0.3500000000000014   F   F   F
  0.7500000000000000  0.8083540000000013  0.3500000000000014   F   F   F
  0.2500000000000000  0.3083540000000013  0.4500000000000028   F   F   F
  0.7500000000000000  0.3083540000000013  0.4500000000000028   F   F   F
  0.0000000000000000  0.5000000000000000  0.3116708000000017   F   F   F
  0.5000000000000000  0.5000000000000000  0.3116708000000017   F   F   F
  0.0000000000000000  0.0000000000000000  0.4116708000000031   F   F   F
  0.5000000000000000  0.0000000000000000  0.4116708000000031   F   F   F
  0.2500000000000000  0.1916459999999987  0.3500000000000014   F   F   F
  0.7500000000000000  0.1916459999999987  0.3500000000000014   F   F   F
  0.2500000000000000  0.6916459999999987  0.4500000000000028   F   F   F
  0.7500000000000000  0.6916459999999987  0.4500000000000028   F   F   F
 
  0.00000000E+00  0.00000000E+00  0.00000000E+00
  0.00000000E+00  0.00000000E+00  0.00000000E+00
  0.00000000E+00  0.00000000E+00  0.00000000E+00
  0.00000000E+00  0.00000000E+00  0.00000000E+00
  0.00000000E+00  0.00000000E+00  0.00000000E+00
  0.00000000E+00  0.00000000E+00  0.00000000E+00
  0.00000000E+00  0.00000000E+00  0.00000000E+00
  0.00000000E+00  0.00000000E+00  0.00000000E+00
  0.00000000E+00  0.00000000E+00  0.00000000E+00
  0.00000000E+00  0.00000000E+00  0.00000000E+00
  0.00000000E+00  0.00000000E+00  0.00000000E+00
  0.00000000E+00  0.00000000E+00  0.00000000E+00
  0.00000000E+00  0.00000000E+00  0.00000000E+00
  0.00000000E+00  0.00000000E+00  0.00000000E+00
  0.00000000E+00  0.00000000E+00  0.00000000E+00
  0.00000000E+00  0.00000000E+00  0.00000000E+00
  0.00000000E+00  0.00000000E+00  0.00000000E+00
  0.00000000E+00  0.00000000E+00  0.00000000E+00
  0.00000000E+00  0.00000000E+00  0.00000000E+00
  0.00000000E+00  0.00000000E+00  0.00000000E+00
  0.00000000E+00  0.00000000E+00  0.00000000E+00
  0.00000000E+00  0.00000000E+00  0.00000000E+00
  0.00000000E+00  0.00000000E+00  0.00000000E+00
  0.00000000E+00  0.00000000E+00  0.00000000E+00
  0.00000000E+00  0.00000000E+00  0.00000000E+00
  0.00000000E+00  0.00000000E+00  0.00000000E+00
  0.00000000E+00  0.00000000E+00  0.00000000E+00
  0.00000000E+00  0.00000000E+00  0.00000000E+00
  0.00000000E+00  0.00000000E+00  0.00000000E+00
  0.00000000E+00  0.00000000E+00  0.00000000E+00
  0.00000000E+00  0.00000000E+00  0.00000000E+00
  0.00000000E+00  0.00000000E+00  0.00000000E+00
  0.00000000E+00  0.00000000E+00  0.00000000E+00
  0.00000000E+00  0.00000000E+00  0.00000000E+00
  0.00000000E+00  0.00000000E+00  0.00000000E+00
  0.00000000E+00  0.00000000E+00  0.00000000E+00
  0.00000000E+00  0.00000000E+00  0.00000000E+00
  0.00000000E+00  0.00000000E+00  0.00000000E+00
  0.00000000E+00  0.00000000E+00  0.00000000E+00
  0.00000000E+00  0.00000000E+00  0.00000000E+00
  0.00000000E+00  0.00000000E+00  0.00000000E+00
  0.00000000E+00  0.00000000E+00  0.00000000E+00
  0.00000000E+00  0.00000000E+00  0.00000000E+00
  0.00000000E+00  0.00000000E+00  0.00000000E+00
  0.00000000E+00  0.00000000E+00  0.00000000E+00
  0.00000000E+00  0.00000000E+00  0.00000000E+00
  0.00000000E+00  0.00000000E+00  0.00000000E+00
