Ir19 O40                                
   1.00000000000000     
     6.3734181999999997    0.0000000000000000    0.0000000000000004
     0.0000000000000016    9.9705133323336028   -0.2062989497618046
     0.0000000000000000    0.0000000000000000   42.6914438100000027
   Ir   O 
    19    40
Selective dynamics
Direct
  0.0000000000000000  0.2715876399999999  0.4193683800000017   F   F   F
  0.5000000000000000  0.2715876399999999  0.4193683800000017   F   F   F
  0.2482410448917349  0.7333839090906480  0.5796109747750222   T   T   T
  0.7517589551082651  0.7333839090906480  0.5796109747750222   T   T   T
  0.0000000000000000  0.4865455051238001  0.5316256473543035   T   T   T
  0.5000000000000000  0.4868265821609086  0.5314960490776102   T   T   T
  0.2500000000000000  0.5157798299999996  0.4687655000000035   F   F   F
  0.7500000000000000  0.5157798299999996  0.4687655000000035   F   F   F
  0.0000000000000000  0.0110285841412718  0.5823780382207246   T   T   T
  0.5000000000000000  0.0080907874752185  0.5810600480250159   T   T   T
  0.2526708528635879  0.2811405805728526  0.5882602641266601   T   T   T
  0.7473291471364121  0.2811405805728526  0.5882602641266601   T   T   T
  0.0000000000000000  0.7284123600000001  0.4139649600000013   F   F   F
  0.5000000000000000  0.7284123600000001  0.4139649600000013   F   F   F
  0.2500000000000000  0.4842201700000004  0.3645678299999986   F   F   F
  0.7500000000000000  0.4842201700000004  0.3645678299999986   F   F   F
  0.5000000000000000  0.4796454443839409  0.6500339029282145   T   T   T
  0.2500000000000000  0.0000000000000000  0.4166666699999979   F   F   F
  0.7500000000000000  0.0000000000000000  0.4166666699999979   F   F   F
  0.0000000000000000  0.3634588946801784  0.5681834832799524   T   T   T
  0.5000000000000000  0.3529588322654007  0.5648399035938425   T   T   T
  0.2500000000000000  0.6529364399999977  0.4361321200000035   F   F   F
  0.7500000000000000  0.6529364399999977  0.4361321200000035   F   F   F
  0.0000000000000000  0.8322794759473524  0.5588170673217263   T   T   T
  0.5000000000000000  0.8267730767592028  0.5584857828251515   T   T   T
  0.2500000000000000  0.1809147499999995  0.4403036100000008   F   F   F
  0.7500000000000000  0.1809147499999995  0.4403036100000008   F   F   F
  0.2470378849494494  0.1073474012040734  0.5622416999303397   T   T   T
  0.7529621150505506  0.1073474012040734  0.5622416999303397   T   T   T
  0.0000000000000000  0.9056086000000008  0.4364558199999991   F   F   F
  0.5000000000000000  0.9056086000000008  0.4364558199999991   F   F   F
  0.2501127746257836  0.5776469944862512  0.5512426407314805   T   T   T
  0.7498872253742164  0.5776469944862512  0.5512426407314805   T   T   T
  0.0000000000000000  0.4271300300000007  0.4486588999999981   F   F   F
  0.5000000000000000  0.4271300300000007  0.4486588999999981   F   F   F
  0.2499922058532036  0.4040328354285663  0.5078786002434228   T   T   T
  0.7500077941467964  0.4040328354285663  0.5078786002434228   T   T   T
  0.0000000000000000  0.5976074699999998  0.4925246999999970   F   F   F
  0.5000000000000000  0.5976074699999998  0.4925246999999970   F   F   F
  0.2500000000000000  0.3470635600000023  0.3972012099999986   F   F   F
  0.7500000000000000  0.3470635600000023  0.3972012099999986   F   F   F
  0.0000000000000000  0.6712733119782612  0.6023754587598802   T   T   T
  0.5000000000000000  0.6723895832508688  0.6016909538086210   T   T   T
  0.2500000000000000  0.8190852500000005  0.3930297300000021   F   F   F
  0.7500000000000000  0.8190852500000005  0.3930297300000021   F   F   F
  0.0000000000000000  0.1881070707461134  0.6075819538371121   T   T   T
  0.5000000000000000  0.1793540716566469  0.6064691037277896   T   T   T
  0.0000000000000000  0.0943913999999992  0.3968775100000030   F   F   F
  0.5000000000000000  0.0943913999999992  0.3968775100000030   F   F   F
  0.2509205275738537  0.9140613432996929  0.6000188945588718   T   T   T
  0.7490794724261463  0.9140613432996929  0.6000188945588718   T   T   T
  0.0000000000000000  0.5728699699999993  0.3846744299999969   F   F   F
  0.5000000000000000  0.5728699699999993  0.3846744299999969   F   F   F
  0.2951378567396077  0.4098077578135531  0.6208635974336900   T   T   T
  0.7048621432603923  0.4098077578135531  0.6208635974336900   T   T   T
  0.0000000000000000  0.4023925300000002  0.3408086299999979   F   F   F
  0.5000000000000000  0.4023925300000002  0.3408086299999979   F   F   F
  0.2880590634436260  0.5352727548101157  0.6723704568678599   T   T   T
  0.7119409365563740  0.5352727548101157  0.6723704568678599   T   T   T
 
  0.00000000E+00  0.00000000E+00  0.00000000E+00
  0.00000000E+00  0.00000000E+00  0.00000000E+00
  0.00000000E+00  0.00000000E+00  0.00000000E+00
  0.00000000E+00  0.00000000E+00  0.00000000E+00
  0.00000000E+00  0.00000000E+00  0.00000000E+00
  0.00000000E+00  0.00000000E+00  0.00000000E+00
  0.00000000E+00  0.00000000E+00  0.00000000E+00
  0.00000000E+00  0.00000000E+00  0.00000000E+00
  0.00000000E+00  0.00000000E+00  0.00000000E+00
  0.00000000E+00  0.00000000E+00  0.00000000E+00
  0.00000000E+00  0.00000000E+00  0.00000000E+00
  0.00000000E+00  0.00000000E+00  0.00000000E+00
  0.00000000E+00  0.00000000E+00  0.00000000E+00
  0.00000000E+00  0.00000000E+00  0.00000000E+00
  0.00000000E+00  0.00000000E+00  0.00000000E+00
  0.00000000E+00  0.00000000E+00  0.00000000E+00
  0.00000000E+00  0.00000000E+00  0.00000000E+00
  0.00000000E+00  0.00000000E+00  0.00000000E+00
  0.00000000E+00  0.00000000E+00  0.00000000E+00
  0.00000000E+00  0.00000000E+00  0.00000000E+00
  0.00000000E+00  0.00000000E+00  0.00000000E+00
  0.00000000E+00  0.00000000E+00  0.00000000E+00
  0.00000000E+00  0.00000000E+00  0.00000000E+00
  0.00000000E+00  0.00000000E+00  0.00000000E+00
  0.00000000E+00  0.00000000E+00  0.00000000E+00
  0.00000000E+00  0.00000000E+00  0.00000000E+00
  0.00000000E+00  0.00000000E+00  0.00000000E+00
  0.00000000E+00  0.00000000E+00  0.00000000E+00
  0.00000000E+00  0.00000000E+00  0.00000000E+00
  0.00000000E+00  0.00000000E+00  0.00000000E+00
  0.00000000E+00  0.00000000E+00  0.00000000E+00
  0.00000000E+00  0.00000000E+00  0.00000000E+00
  0.00000000E+00  0.00000000E+00  0.00000000E+00
  0.00000000E+00  0.00000000E+00  0.00000000E+00
  0.00000000E+00  0.00000000E+00  0.00000000E+00
  0.00000000E+00  0.00000000E+00  0.00000000E+00
  0.00000000E+00  0.00000000E+00  0.00000000E+00
  0.00000000E+00  0.00000000E+00  0.00000000E+00
  0.00000000E+00  0.00000000E+00  0.00000000E+00
  0.00000000E+00  0.00000000E+00  0.00000000E+00
  0.00000000E+00  0.00000000E+00  0.00000000E+00
  0.00000000E+00  0.00000000E+00  0.00000000E+00
  0.00000000E+00  0.00000000E+00  0.00000000E+00
  0.00000000E+00  0.00000000E+00  0.00000000E+00
  0.00000000E+00  0.00000000E+00  0.00000000E+00
  0.00000000E+00  0.00000000E+00  0.00000000E+00
  0.00000000E+00  0.00000000E+00  0.00000000E+00
  0.00000000E+00  0.00000000E+00  0.00000000E+00
  0.00000000E+00  0.00000000E+00  0.00000000E+00
  0.00000000E+00  0.00000000E+00  0.00000000E+00
  0.00000000E+00  0.00000000E+00  0.00000000E+00
  0.00000000E+00  0.00000000E+00  0.00000000E+00
  0.00000000E+00  0.00000000E+00  0.00000000E+00
  0.00000000E+00  0.00000000E+00  0.00000000E+00
  0.00000000E+00  0.00000000E+00  0.00000000E+00
  0.00000000E+00  0.00000000E+00  0.00000000E+00
  0.00000000E+00  0.00000000E+00  0.00000000E+00
  0.00000000E+00  0.00000000E+00  0.00000000E+00
  0.00000000E+00  0.00000000E+00  0.00000000E+00
