H1 Ir20 O41                             
   1.00000000000000     
     6.3734181999999997    0.0000000000000000    0.0000000000000004
     0.0000000000000016    9.9705133323336028   -0.2062989497618046
     0.0000000000000000    0.0000000000000000   42.6914438100000027
   H    Ir   O 
     1    20    41
Selective dynamics
Direct
  0.3936573617828624  0.4026026573638150  0.6847601403386817   T   T   T
  0.0000000000000000  0.2715876399999999  0.4193683800000017   F   F   F
  0.5000000000000000  0.2715876399999999  0.4193683800000017   F   F   F
  0.2523126646595305  0.7398051043321834  0.5808589705338674   T   T   T
  0.7462786078588287  0.7398670129795540  0.5808644766126231   T   T   T
  0.0004745105645860  0.4924227800169521  0.5321565648227005   T   T   T
  0.5004878334630966  0.4919984103207736  0.5320035269078146   T   T   T
  0.2500000000000000  0.5157798299999996  0.4687655000000035   F   F   F
  0.7500000000000000  0.5157798299999996  0.4687655000000035   F   F   F
  0.0002408551491339  0.0139036329244989  0.5842170912487229   T   T   T
  0.4996751916743046  0.0147358130656518  0.5841871703139381   T   T   T
  0.2516569449887781  0.2856660763034853  0.5881361600341489   T   T   T
  0.7519048164136167  0.2854948233155190  0.5882937523542241   T   T   T
  0.0000000000000000  0.7284123600000001  0.4139649600000013   F   F   F
  0.5000000000000000  0.7284123600000001  0.4139649600000013   F   F   F
  0.2500000000000000  0.4842201700000004  0.3645678299999986   F   F   F
  0.7500000000000000  0.4842201700000004  0.3645678299999986   F   F   F
  0.0010696243534158  0.5412747225016469  0.6361439817613952   T   T   T
  0.5026799114906325  0.5266741981376641  0.6391717733854211   T   T   T
  0.2500000000000000  0.0000000000000000  0.4166666699999979   F   F   F
  0.7500000000000000  0.0000000000000000  0.4166666699999979   F   F   F
  0.0017047304571902  0.3640537538638918  0.5667490709314157   T   T   T
  0.5015660200517458  0.3625028980897379  0.5664336490431935   T   T   T
  0.2500000000000000  0.6529364399999977  0.4361321200000035   F   F   F
  0.7500000000000000  0.6529364399999977  0.4361321200000035   F   F   F
 -0.0003053058877490  0.8328493998057954  0.5605097970048922   T   T   T
  0.4990511202754064  0.8341523867663247  0.5601693524995722   T   T   T
  0.2500000000000000  0.1809147499999995  0.4403036100000008   F   F   F
  0.7500000000000000  0.1809147499999995  0.4403036100000008   F   F   F
  0.2499424640785509  0.1104164570287233  0.5643452227703692   T   T   T
  0.7502436294083511  0.1103862074137334  0.5643625892423191   T   T   T
  0.0000000000000000  0.9056086000000008  0.4364558199999991   F   F   F
  0.5000000000000000  0.9056086000000008  0.4364558199999991   F   F   F
  0.2509284931963450  0.5842423122126440  0.5515240852639653   T   T   T
  0.7493840584677612  0.5840547671445375  0.5515991927666177   T   T   T
  0.0000000000000000  0.4271300300000007  0.4486588999999981   F   F   F
  0.5000000000000000  0.4271300300000007  0.4486588999999981   F   F   F
  0.2501134954506523  0.4080029867224857  0.5086036052978908   T   T   T
  0.7505006312928095  0.4077317095117930  0.5085885844879878   T   T   T
  0.0000000000000000  0.5976074699999998  0.4925246999999970   F   F   F
  0.5000000000000000  0.5976074699999998  0.4925246999999970   F   F   F
  0.2500000000000000  0.3470635600000023  0.3972012099999986   F   F   F
  0.7500000000000000  0.3470635600000023  0.3972012099999986   F   F   F
 -0.0010917533021970  0.6692358308413680  0.6029184373482357   T   T   T
  0.4987747819093975  0.6627291634161099  0.6037414732521790   T   T   T
  0.2500000000000000  0.8190852500000005  0.3930297300000021   F   F   F
  0.7500000000000000  0.8190852500000005  0.3930297300000021   F   F   F
  0.0017822439943916  0.1936359846578837  0.6086966940691745   T   T   T
  0.5012580283675842  0.1936899254131899  0.6086007133237444   T   T   T
  0.0000000000000000  0.0943913999999992  0.3968775100000030   F   F   F
  0.5000000000000000  0.0943913999999992  0.3968775100000030   F   F   F
  0.2502989619364590  0.9179859527346546  0.6032550705750027   T   T   T
  0.7488686229874001  0.9180730995518955  0.6030704432741381   T   T   T
  0.0000000000000000  0.5728699699999993  0.3846744299999969   F   F   F
  0.5000000000000000  0.5728699699999993  0.3846744299999969   F   F   F
  0.2500745213761246  0.4403176393931577  0.6181134318033314   T   T   T
  0.7578092839562683  0.4378918922101900  0.6185782400073132   T   T   T
  0.0000000000000000  0.4023925300000002  0.3408086299999979   F   F   F
  0.5000000000000000  0.4023925300000002  0.3408086299999979   F   F   F
  0.2445117446218725  0.6060915108881122  0.6591793511903591   T   T   T
  0.7490455285664006  0.6194973336244020  0.6562571440028900   T   T   T
  0.5118107191161330  0.3898082203577702  0.6703148250140161   T   T   T
 
  0.00000000E+00  0.00000000E+00  0.00000000E+00
  0.00000000E+00  0.00000000E+00  0.00000000E+00
  0.00000000E+00  0.00000000E+00  0.00000000E+00
  0.00000000E+00  0.00000000E+00  0.00000000E+00
  0.00000000E+00  0.00000000E+00  0.00000000E+00
  0.00000000E+00  0.00000000E+00  0.00000000E+00
  0.00000000E+00  0.00000000E+00  0.00000000E+00
  0.00000000E+00  0.00000000E+00  0.00000000E+00
  0.00000000E+00  0.00000000E+00  0.00000000E+00
  0.00000000E+00  0.00000000E+00  0.00000000E+00
  0.00000000E+00  0.00000000E+00  0.00000000E+00
  0.00000000E+00  0.00000000E+00  0.00000000E+00
  0.00000000E+00  0.00000000E+00  0.00000000E+00
  0.00000000E+00  0.00000000E+00  0.00000000E+00
  0.00000000E+00  0.00000000E+00  0.00000000E+00
  0.00000000E+00  0.00000000E+00  0.00000000E+00
  0.00000000E+00  0.00000000E+00  0.00000000E+00
  0.00000000E+00  0.00000000E+00  0.00000000E+00
  0.00000000E+00  0.00000000E+00  0.00000000E+00
  0.00000000E+00  0.00000000E+00  0.00000000E+00
  0.00000000E+00  0.00000000E+00  0.00000000E+00
  0.00000000E+00  0.00000000E+00  0.00000000E+00
  0.00000000E+00  0.00000000E+00  0.00000000E+00
  0.00000000E+00  0.00000000E+00  0.00000000E+00
  0.00000000E+00  0.00000000E+00  0.00000000E+00
  0.00000000E+00  0.00000000E+00  0.00000000E+00
  0.00000000E+00  0.00000000E+00  0.00000000E+00
  0.00000000E+00  0.00000000E+00  0.00000000E+00
  0.00000000E+00  0.00000000E+00  0.00000000E+00
  0.00000000E+00  0.00000000E+00  0.00000000E+00
  0.00000000E+00  0.00000000E+00  0.00000000E+00
  0.00000000E+00  0.00000000E+00  0.00000000E+00
  0.00000000E+00  0.00000000E+00  0.00000000E+00
  0.00000000E+00  0.00000000E+00  0.00000000E+00
  0.00000000E+00  0.00000000E+00  0.00000000E+00
  0.00000000E+00  0.00000000E+00  0.00000000E+00
  0.00000000E+00  0.00000000E+00  0.00000000E+00
  0.00000000E+00  0.00000000E+00  0.00000000E+00
  0.00000000E+00  0.00000000E+00  0.00000000E+00
  0.00000000E+00  0.00000000E+00  0.00000000E+00
  0.00000000E+00  0.00000000E+00  0.00000000E+00
  0.00000000E+00  0.00000000E+00  0.00000000E+00
  0.00000000E+00  0.00000000E+00  0.00000000E+00
  0.00000000E+00  0.00000000E+00  0.00000000E+00
  0.00000000E+00  0.00000000E+00  0.00000000E+00
  0.00000000E+00  0.00000000E+00  0.00000000E+00
  0.00000000E+00  0.00000000E+00  0.00000000E+00
  0.00000000E+00  0.00000000E+00  0.00000000E+00
  0.00000000E+00  0.00000000E+00  0.00000000E+00
  0.00000000E+00  0.00000000E+00  0.00000000E+00
  0.00000000E+00  0.00000000E+00  0.00000000E+00
  0.00000000E+00  0.00000000E+00  0.00000000E+00
  0.00000000E+00  0.00000000E+00  0.00000000E+00
  0.00000000E+00  0.00000000E+00  0.00000000E+00
  0.00000000E+00  0.00000000E+00  0.00000000E+00
  0.00000000E+00  0.00000000E+00  0.00000000E+00
  0.00000000E+00  0.00000000E+00  0.00000000E+00
  0.00000000E+00  0.00000000E+00  0.00000000E+00
  0.00000000E+00  0.00000000E+00  0.00000000E+00
  0.00000000E+00  0.00000000E+00  0.00000000E+00
  0.00000000E+00  0.00000000E+00  0.00000000E+00
  0.00000000E+00  0.00000000E+00  0.00000000E+00
