Ir20 O40                                
   1.00000000000000     
     6.3734181999999997    0.0000000000000000    0.0000000000000004
     0.0000000000000016    9.9705133323336028   -0.2062989497618046
     0.0000000000000000    0.0000000000000000   42.6914438100000027
   Ir   O 
    20    40
Selective dynamics
Direct
  0.0000000000000000  0.2715876399999999  0.4193683800000017   F   F   F
  0.5000000000000000  0.2715876399999999  0.4193683800000017   F   F   F
  0.2500000000000000  0.7288509216517134  0.5806308448371613   T   T   T
  0.7500000000000000  0.7288509216517134  0.5806308448371613   T   T   T
 -0.0000000000000000  0.4850567227293603  0.5315665719893611   T   T   T
  0.5000000000000000  0.4850567227293603  0.5315665719893611   T   T   T
  0.2500000000000000  0.5157798299999996  0.4687655000000035   F   F   F
  0.7500000000000000  0.5157798299999996  0.4687655000000035   F   F   F
 -0.0000000000000000  0.0044162622779684  0.5818739239455876   T   T   T
  0.5000000000000000  0.0044162622779684  0.5818739239455876   T   T   T
  0.2500000000000000  0.2727488232419408  0.5860001923044096   T   T   T
  0.7500000000000000  0.2727488232419408  0.5860001923044096   T   T   T
  0.0000000000000000  0.7284123600000001  0.4139649600000013   F   F   F
  0.5000000000000000  0.7284123600000001  0.4139649600000013   F   F   F
  0.2500000000000000  0.4842201700000004  0.3645678299999986   F   F   F
  0.7500000000000000  0.4842201700000004  0.3645678299999986   F   F   F
 -0.0000000000000000  0.5181985456525272  0.6365015194848160   T   T   T
  0.5000000000000000  0.5181985456525272  0.6365015194848160   T   T   T
  0.2500000000000000  0.0000000000000000  0.4166666699999979   F   F   F
  0.7500000000000000  0.0000000000000000  0.4166666699999979   F   F   F
 -0.0000000000000000  0.3502271346584276  0.5646837998274422   T   T   T
  0.5000000000000000  0.3502271346584276  0.5646837998274493   T   T   T
  0.2500000000000000  0.6529364399999977  0.4361321200000035   F   F   F
  0.7500000000000000  0.6529364399999977  0.4361321200000035   F   F   F
 -0.0000000000000000  0.8209536993222742  0.5595448810406132   T   T   T
  0.5000000000000000  0.8209536993222742  0.5595448810406132   T   T   T
  0.2500000000000000  0.1809147499999995  0.4403036100000008   F   F   F
  0.7500000000000000  0.1809147499999995  0.4403036100000008   F   F   F
  0.2500000000000000  0.0986471017526032  0.5614795151232232   T   T   T
  0.7500000000000000  0.0986471017526032  0.5614795151232232   T   T   T
  0.0000000000000000  0.9056086000000008  0.4364558199999991   F   F   F
  0.5000000000000000  0.9056086000000008  0.4364558199999991   F   F   F
  0.2500000000000000  0.5716766095332402  0.5522958228973827   T   T   T
  0.7500000000000000  0.5716766095332402  0.5522958228973827   T   T   T
  0.0000000000000000  0.4271300300000007  0.4486588999999981   F   F   F
  0.5000000000000000  0.4271300300000007  0.4486588999999981   F   F   F
  0.2500000000000000  0.4037438013409461  0.5076652343177178   T   T   T
  0.7500000000000000  0.4037438013409461  0.5076652343177178   T   T   T
  0.0000000000000000  0.5976074699999998  0.4925246999999970   F   F   F
  0.5000000000000000  0.5976074699999998  0.4925246999999970   F   F   F
  0.2500000000000000  0.3470635600000023  0.3972012099999986   F   F   F
  0.7500000000000000  0.3470635600000023  0.3972012099999986   F   F   F
 -0.0000000000000000  0.6703196592212467  0.6067230570364581   T   T   T
  0.5000000000000000  0.6703196592212467  0.6067230570364581   T   T   T
  0.2500000000000000  0.8190852500000005  0.3930297300000021   F   F   F
  0.7500000000000000  0.8190852500000005  0.3930297300000021   F   F   F
 -0.0000000000000000  0.1823595191846389  0.6069345049760269   T   T   T
  0.5000000000000000  0.1823595191846389  0.6069345049760269   T   T   T
  0.0000000000000000  0.0943913999999992  0.3968775100000030   F   F   F
  0.5000000000000000  0.0943913999999992  0.3968775100000030   F   F   F
  0.2500000000000000  0.9108202772557956  0.6010697029799231   T   T   T
  0.7500000000000000  0.9108202772557956  0.6010697029799231   T   T   T
  0.0000000000000000  0.5728699699999993  0.3846744299999969   F   F   F
  0.5000000000000000  0.5728699699999993  0.3846744299999969   F   F   F
  0.2500000000000000  0.4242895275900885  0.6166684431060561   T   T   T
  0.7500000000000000  0.4242895275900885  0.6166684431060561   T   T   T
  0.0000000000000000  0.4023925300000002  0.3408086299999979   F   F   F
  0.5000000000000000  0.4023925300000002  0.3408086299999979   F   F   F
  0.2500000000000000  0.5783242996241215  0.6594994624983598   T   T   T
  0.7500000000000000  0.5783242996241215  0.6594994624983598   T   T   T
 
  0.00000000E+00  0.00000000E+00  0.00000000E+00
  0.00000000E+00  0.00000000E+00  0.00000000E+00
  0.00000000E+00  0.00000000E+00  0.00000000E+00
  0.00000000E+00  0.00000000E+00  0.00000000E+00
  0.00000000E+00  0.00000000E+00  0.00000000E+00
  0.00000000E+00  0.00000000E+00  0.00000000E+00
  0.00000000E+00  0.00000000E+00  0.00000000E+00
  0.00000000E+00  0.00000000E+00  0.00000000E+00
  0.00000000E+00  0.00000000E+00  0.00000000E+00
  0.00000000E+00  0.00000000E+00  0.00000000E+00
  0.00000000E+00  0.00000000E+00  0.00000000E+00
  0.00000000E+00  0.00000000E+00  0.00000000E+00
  0.00000000E+00  0.00000000E+00  0.00000000E+00
  0.00000000E+00  0.00000000E+00  0.00000000E+00
  0.00000000E+00  0.00000000E+00  0.00000000E+00
  0.00000000E+00  0.00000000E+00  0.00000000E+00
  0.00000000E+00  0.00000000E+00  0.00000000E+00
  0.00000000E+00  0.00000000E+00  0.00000000E+00
  0.00000000E+00  0.00000000E+00  0.00000000E+00
  0.00000000E+00  0.00000000E+00  0.00000000E+00
  0.00000000E+00  0.00000000E+00  0.00000000E+00
  0.00000000E+00  0.00000000E+00  0.00000000E+00
  0.00000000E+00  0.00000000E+00  0.00000000E+00
  0.00000000E+00  0.00000000E+00  0.00000000E+00
  0.00000000E+00  0.00000000E+00  0.00000000E+00
  0.00000000E+00  0.00000000E+00  0.00000000E+00
  0.00000000E+00  0.00000000E+00  0.00000000E+00
  0.00000000E+00  0.00000000E+00  0.00000000E+00
  0.00000000E+00  0.00000000E+00  0.00000000E+00
  0.00000000E+00  0.00000000E+00  0.00000000E+00
  0.00000000E+00  0.00000000E+00  0.00000000E+00
  0.00000000E+00  0.00000000E+00  0.00000000E+00
  0.00000000E+00  0.00000000E+00  0.00000000E+00
  0.00000000E+00  0.00000000E+00  0.00000000E+00
  0.00000000E+00  0.00000000E+00  0.00000000E+00
  0.00000000E+00  0.00000000E+00  0.00000000E+00
  0.00000000E+00  0.00000000E+00  0.00000000E+00
  0.00000000E+00  0.00000000E+00  0.00000000E+00
  0.00000000E+00  0.00000000E+00  0.00000000E+00
  0.00000000E+00  0.00000000E+00  0.00000000E+00
  0.00000000E+00  0.00000000E+00  0.00000000E+00
  0.00000000E+00  0.00000000E+00  0.00000000E+00
  0.00000000E+00  0.00000000E+00  0.00000000E+00
  0.00000000E+00  0.00000000E+00  0.00000000E+00
  0.00000000E+00  0.00000000E+00  0.00000000E+00
  0.00000000E+00  0.00000000E+00  0.00000000E+00
  0.00000000E+00  0.00000000E+00  0.00000000E+00
  0.00000000E+00  0.00000000E+00  0.00000000E+00
  0.00000000E+00  0.00000000E+00  0.00000000E+00
  0.00000000E+00  0.00000000E+00  0.00000000E+00
  0.00000000E+00  0.00000000E+00  0.00000000E+00
  0.00000000E+00  0.00000000E+00  0.00000000E+00
  0.00000000E+00  0.00000000E+00  0.00000000E+00
  0.00000000E+00  0.00000000E+00  0.00000000E+00
  0.00000000E+00  0.00000000E+00  0.00000000E+00
  0.00000000E+00  0.00000000E+00  0.00000000E+00
  0.00000000E+00  0.00000000E+00  0.00000000E+00
  0.00000000E+00  0.00000000E+00  0.00000000E+00
  0.00000000E+00  0.00000000E+00  0.00000000E+00
  0.00000000E+00  0.00000000E+00  0.00000000E+00
