H1 Ir16 O33                             
   1.00000000000000     
     6.3790139999999997    0.0000000000000000    0.0000000000000004
     0.0000000000000010    6.4275143699999999    0.0000000000000004
     0.0000000000000000    0.0000000000000000   32.1375718700000021
   H    Ir   O 
     1    16    33
Selective dynamics
Direct
  0.3819951008652639  0.5591337715956644  0.7229983901589242   T   T   T
  0.2519800501702099  0.5003502006898255  0.5497801381722304   T   T   T
  0.7480620355571419  0.4998072682042444  0.5497825006499750   T   T   T
  0.2489997378702083  0.0002792209707502  0.6505864873433229   T   T   T
  0.7484587675242419  0.0001816574627073  0.6506444294151020   T   T   T
 -0.0025061096606809  0.4997755205648282  0.6475289034471825   T   T   T
  0.4982283687318663  0.5001211955087972  0.6509832337219008   T   T   T
 -0.0001005894312377  0.0000731939902370  0.5502455535579113   T   T   T
  0.4999691523399000  0.0000782904900024  0.5502434891390293   T   T   T
  0.2500000000000000  0.5000000000000000  0.3500000000000014   F   F   F
  0.7500000000000000  0.5000000000000000  0.3500000000000014   F   F   F
  0.2500000000000000  0.0000000000000000  0.4500000000000028   F   F   F
  0.7500000000000000  0.0000000000000000  0.4500000000000028   F   F   F
  0.0000000000000000  0.5000000000000000  0.4500000000000028   F   F   F
  0.5000000000000000  0.5000000000000000  0.4500000000000028   F   F   F
  0.0000000000000000  0.0000000000000000  0.3500000000000014   F   F   F
  0.5000000000000000  0.0000000000000000  0.3500000000000014   F   F   F
  0.0000738801587555  0.5002909186412087  0.5872294118789138   T   T   T
  0.4998904184256210  0.4995620407797688  0.5883710885165622   T   T   T
 -0.0011003544457595 -0.0001552883989338  0.6873702720379592   T   T   T
  0.4983556288495783 -0.0017329982534070  0.6870375687018190   T   T   T
  0.2500776631929023  0.8087733260336151  0.5500257535471470   T   T   T
  0.7497675505640197  0.8084235185596369  0.5500007882170713   T   T   T
  0.2477502458440599  0.3095353423317150  0.6505200518950539   T   T   T
  0.7505523378088349  0.3085452620940448  0.6512576484949545   T   T   T
  0.0000781269624811  0.5001605665179911  0.5116320544609891   T   T   T
  0.5000430273018756  0.5000751244766306  0.5113652204642967   T   T   T
 -0.0010338777202925  0.0005470702335602  0.6117652357014510   T   T   T
  0.4989522518005469  0.0006108743146085  0.6117476890087946   T   T   T
  0.2501658175828056  0.1917087533475249  0.5499480211635137   T   T   T
  0.7499092598441207  0.1913365900685523  0.5499697973643386   T   T   T
  0.2460171062544839  0.6911155187999566  0.6514757490656349   T   T   T
  0.7492298746551417  0.6910993725362574  0.6501423183293711   T   T   T
  0.0000000000000000  0.5000000000000000  0.3883292000000012   F   F   F
  0.5000000000000000  0.5000000000000000  0.3883292000000012   F   F   F
  0.0000000000000000  0.0000000000000000  0.4883292000000026   F   F   F
  0.5000000000000000  0.0000000000000000  0.4883292000000026   F   F   F
  0.2500000000000000  0.8083540000000013  0.3500000000000014   F   F   F
  0.7500000000000000  0.8083540000000013  0.3500000000000014   F   F   F
  0.2500000000000000  0.3083540000000013  0.4500000000000028   F   F   F
  0.7500000000000000  0.3083540000000013  0.4500000000000028   F   F   F
  0.0000000000000000  0.5000000000000000  0.3116708000000017   F   F   F
  0.5000000000000000  0.5000000000000000  0.3116708000000017   F   F   F
  0.0000000000000000  0.0000000000000000  0.4116708000000031   F   F   F
  0.5000000000000000  0.0000000000000000  0.4116708000000031   F   F   F
  0.2500000000000000  0.1916459999999987  0.3500000000000014   F   F   F
  0.7500000000000000  0.1916459999999987  0.3500000000000014   F   F   F
  0.2500000000000000  0.6916459999999987  0.4500000000000028   F   F   F
  0.7500000000000000  0.6916459999999987  0.4500000000000028   F   F   F
  0.5105916595672737  0.5002629569393352  0.7112092824069861   T   T   T
 
  0.00000000E+00  0.00000000E+00  0.00000000E+00
  0.00000000E+00  0.00000000E+00  0.00000000E+00
  0.00000000E+00  0.00000000E+00  0.00000000E+00
  0.00000000E+00  0.00000000E+00  0.00000000E+00
  0.00000000E+00  0.00000000E+00  0.00000000E+00
  0.00000000E+00  0.00000000E+00  0.00000000E+00
  0.00000000E+00  0.00000000E+00  0.00000000E+00
  0.00000000E+00  0.00000000E+00  0.00000000E+00
  0.00000000E+00  0.00000000E+00  0.00000000E+00
  0.00000000E+00  0.00000000E+00  0.00000000E+00
  0.00000000E+00  0.00000000E+00  0.00000000E+00
  0.00000000E+00  0.00000000E+00  0.00000000E+00
  0.00000000E+00  0.00000000E+00  0.00000000E+00
  0.00000000E+00  0.00000000E+00  0.00000000E+00
  0.00000000E+00  0.00000000E+00  0.00000000E+00
  0.00000000E+00  0.00000000E+00  0.00000000E+00
  0.00000000E+00  0.00000000E+00  0.00000000E+00
  0.00000000E+00  0.00000000E+00  0.00000000E+00
  0.00000000E+00  0.00000000E+00  0.00000000E+00
  0.00000000E+00  0.00000000E+00  0.00000000E+00
  0.00000000E+00  0.00000000E+00  0.00000000E+00
  0.00000000E+00  0.00000000E+00  0.00000000E+00
  0.00000000E+00  0.00000000E+00  0.00000000E+00
  0.00000000E+00  0.00000000E+00  0.00000000E+00
  0.00000000E+00  0.00000000E+00  0.00000000E+00
  0.00000000E+00  0.00000000E+00  0.00000000E+00
  0.00000000E+00  0.00000000E+00  0.00000000E+00
  0.00000000E+00  0.00000000E+00  0.00000000E+00
  0.00000000E+00  0.00000000E+00  0.00000000E+00
  0.00000000E+00  0.00000000E+00  0.00000000E+00
  0.00000000E+00  0.00000000E+00  0.00000000E+00
  0.00000000E+00  0.00000000E+00  0.00000000E+00
  0.00000000E+00  0.00000000E+00  0.00000000E+00
  0.00000000E+00  0.00000000E+00  0.00000000E+00
  0.00000000E+00  0.00000000E+00  0.00000000E+00
  0.00000000E+00  0.00000000E+00  0.00000000E+00
  0.00000000E+00  0.00000000E+00  0.00000000E+00
  0.00000000E+00  0.00000000E+00  0.00000000E+00
  0.00000000E+00  0.00000000E+00  0.00000000E+00
  0.00000000E+00  0.00000000E+00  0.00000000E+00
  0.00000000E+00  0.00000000E+00  0.00000000E+00
  0.00000000E+00  0.00000000E+00  0.00000000E+00
  0.00000000E+00  0.00000000E+00  0.00000000E+00
  0.00000000E+00  0.00000000E+00  0.00000000E+00
  0.00000000E+00  0.00000000E+00  0.00000000E+00
  0.00000000E+00  0.00000000E+00  0.00000000E+00
  0.00000000E+00  0.00000000E+00  0.00000000E+00
  0.00000000E+00  0.00000000E+00  0.00000000E+00
  0.00000000E+00  0.00000000E+00  0.00000000E+00
  0.00000000E+00  0.00000000E+00  0.00000000E+00
