Ir32 O64                                
   1.00000000000000     
     6.3743804800000001    0.0000000000000000    0.0000000000000004
     0.0000000000000016   10.1020391709426818    0.0826870943907734
     0.0000000000000000    0.0000000000000000   40.9706790400000003
   Ir   O 
    32    64
Selective dynamics
Direct
  0.0000000000000000  0.3503849100000025  0.3340635200000008   F   F   F
  0.5000000000000000  0.3503849100000025  0.3340635200000008   F   F   F
  0.2500000000000000  0.1496150899999975  0.2909364799999992   F   F   F
  0.7500000000000000  0.1496150899999975  0.2909364799999992   F   F   F
  0.2500000000000000  0.3345320900000033  0.4118872999999965   F   F   F
  0.7500000000000000  0.3345320900000033  0.4118872999999965   F   F   F
  0.0000000000000000  0.1654679099999967  0.4631127000000035   F   F   F
  0.5000000000000000  0.1654679099999967  0.4631127000000035   F   F   F
  0.2500000000000000  0.8503849100000025  0.4590635200000008   F   F   F
  0.7500000000000000  0.8503849100000025  0.4590635200000008   F   F   F
  0.0000000000000000  0.6496150899999975  0.4159364799999992   F   F   F
  0.5000000000000000  0.6496150899999975  0.4159364799999992   F   F   F
  0.0000000000000000  0.8345320900000033  0.2868872999999965   F   F   F
  0.5000000000000000  0.8345320900000033  0.2868872999999965   F   F   F
  0.2500000000000000  0.6654679099999967  0.3381127000000035   F   F   F
  0.7500000000000000  0.6654679099999967  0.3381127000000035   F   F   F
  0.0000000000000000  0.3518449877722361  0.5836398877049109   T   T   T
  0.5000000000000000  0.3518449877722361  0.5836398877049109   T   T   T
  0.2500000000000000  0.1498128703005330  0.5409677998349440   T   T   T
  0.7500000000000000  0.1498128703005330  0.5409677998349440   T   T   T
  0.2500000000000000  0.3370201636419107  0.6613877451663009   T   T   T
  0.7500000000000000  0.3370201636419107  0.6613877451663009   T   T   T
  0.0000000000000000  0.1602249427843777  0.7112433017408250   T   T   T
  0.5000000000000000  0.1602249427843778  0.7112433017408250   T   T   T
  0.2500000000000000  0.8485140614575505  0.7118877532973269   T   T   T
  0.7500000000000000  0.8485140614575505  0.7118877532973269   T   T   T
 -0.0000000000000000  0.6532545243011938  0.6659145052022776   T   T   T
  0.5000000000000000  0.6532545243011938  0.6659145052022776   T   T   T
  0.0000000000000000  0.8348293410110291  0.5369090913653315   T   T   T
  0.5000000000000000  0.8348293410110291  0.5369090913653315   T   T   T
  0.2500000000000000  0.6662270181080686  0.5880255602694591   T   T   T
  0.7500000000000000  0.6662270181080686  0.5880255602694591   T   T   T
  0.2500000000000000  0.3413040399999971  0.3638725499999964   F   F   F
  0.7500000000000000  0.3413040399999971  0.3638725499999964   F   F   F
  0.0000000000000000  0.1586959600000029  0.2611274499999965   F   F   F
  0.5000000000000000  0.1586959600000029  0.2611274499999965   F   F   F
  0.2500000000000000  0.3432976799999992  0.3026394400000001   F   F   F
  0.7500000000000000  0.3432976799999992  0.3026394400000001   F   F   F
  0.0000000000000000  0.1567023200000008  0.3223605599999999   F   F   F
  0.5000000000000000  0.1567023200000008  0.3223605599999999   F   F   F
  0.0000000000000000  0.5448724299999981  0.3370376000000022   F   F   F
  0.5000000000000000  0.5448724299999981  0.3370376000000022   F   F   F
  0.2500000000000000  0.9551275700000019  0.2879623999999978   F   F   F
  0.7500000000000000  0.9551275700000019  0.2879623999999978   F   F   F
  0.0000000000000000  0.2072168199999993  0.4147625000000019   F   F   F
  0.5000000000000000  0.2072168199999993  0.4147625000000019   F   F   F
  0.2500000000000000  0.2927831800000007  0.4602374999999981   F   F   F
  0.7500000000000000  0.2927831800000007  0.4602374999999981   F   F   F
  0.0000000000000000  0.8413040399999971  0.4888725499999964   F   F   F
  0.5000000000000000  0.8413040399999971  0.4888725499999964   F   F   F
  0.2500000000000000  0.6586959600000029  0.3861274499999965   F   F   F
  0.7500000000000000  0.6586959600000029  0.3861274499999965   F   F   F
  0.0000000000000000  0.8432976799999992  0.4276394400000001   F   F   F
  0.5000000000000000  0.8432976799999992  0.4276394400000001   F   F   F
  0.2500000000000000  0.6567023200000008  0.4473605599999999   F   F   F
  0.7500000000000000  0.6567023200000008  0.4473605599999999   F   F   F
  0.2500000000000000  0.0448724299999981  0.4620376000000022   F   F   F
  0.7500000000000000  0.0448724299999981  0.4620376000000022   F   F   F
  0.0000000000000000  0.4551275700000019  0.4129623999999978   F   F   F
  0.5000000000000000  0.4551275700000019  0.4129623999999978   F   F   F
  0.2500000000000000  0.7072168199999993  0.2897625000000019   F   F   F
  0.7500000000000000  0.7072168199999993  0.2897625000000019   F   F   F
  0.0000000000000000  0.7927831800000007  0.3352374999999981   F   F   F
  0.5000000000000000  0.7927831800000007  0.3352374999999981   F   F   F
  0.2500000000000000  0.3463942800752584  0.6133998509963843   T   T   T
  0.7500000000000000  0.3463942800752584  0.6133998509963843   T   T   T
  0.0000000000000000  0.1588594833096475  0.5112404523310264   T   T   T
  0.5000000000000000  0.1588594833096475  0.5112404523310264   T   T   T
  0.2500000000000000  0.3439334114644083  0.5522400179968665   T   T   T
  0.7500000000000000  0.3439334114644083  0.5522400179968665   T   T   T
 -0.0000000000000000  0.1572959229552084  0.5724499407224242   T   T   T
  0.5000000000000000  0.1572959229552084  0.5724499407224242   T   T   T
 -0.0000000000000000  0.5462818792797429  0.5866484813766891   T   T   T
  0.5000000000000000  0.5462818792797429  0.5866484813766891   T   T   T
  0.2500000000000000  0.9553670925794742  0.5381421391715471   T   T   T
  0.7500000000000000  0.9553670925794742  0.5381421391715471   T   T   T
  0.0000000000000000  0.2087161674413536  0.6634076896591159   T   T   T
  0.5000000000000000  0.2087161674413536  0.6634076896591159   T   T   T
  0.2500000000000000  0.2855564480339879  0.7089946539070874   T   T   T
  0.7500000000000000  0.2855564480339879  0.7089946539070874   T   T   T
 -0.0000000000000000  0.8300039533927053  0.7397209370298511   T   T   T
  0.5000000000000000  0.8300039533927053  0.7397209370298511   T   T   T
  0.2500000000000000  0.6614522178065735  0.6362098766783193   T   T   T
  0.7500000000000000  0.6614522178065735  0.6362098766783193   T   T   T
  0.0000000000000000  0.8436257538711843  0.6793783522377647   T   T   T
  0.5000000000000000  0.8436257538711843  0.6793783522377647   T   T   T
  0.2500000000000000  0.6586880505159747  0.6969714179813022   T   T   T
  0.7500000000000000  0.6586880505159747  0.6969714179813022   T   T   T
  0.2500000000000000  0.0437245088997433  0.7158964612915903   T   T   T
  0.7500000000000000  0.0437245088997433  0.7158964612915903   T   T   T
 -0.0000000000000000  0.4573193493125449  0.6633005833474339   T   T   T
  0.5000000000000000  0.4573193493125449  0.6633005833474339   T   T   T
  0.2500000000000000  0.7076012783843793  0.5397467460439848   T   T   T
  0.7500000000000000  0.7076012783843793  0.5397467460439848   T   T   T
  0.0000000000000000  0.7930374153805259  0.5852594821353623   T   T   T
  0.5000000000000000  0.7930374153805259  0.5852594821353623   T   T   T
 
  0.00000000E+00  0.00000000E+00  0.00000000E+00
  0.00000000E+00  0.00000000E+00  0.00000000E+00
  0.00000000E+00  0.00000000E+00  0.00000000E+00
  0.00000000E+00  0.00000000E+00  0.00000000E+00
  0.00000000E+00  0.00000000E+00  0.00000000E+00
  0.00000000E+00  0.00000000E+00  0.00000000E+00
  0.00000000E+00  0.00000000E+00  0.00000000E+00
  0.00000000E+00  0.00000000E+00  0.00000000E+00
  0.00000000E+00  0.00000000E+00  0.00000000E+00
  0.00000000E+00  0.00000000E+00  0.00000000E+00
  0.00000000E+00  0.00000000E+00  0.00000000E+00
  0.00000000E+00  0.00000000E+00  0.00000000E+00
  0.00000000E+00  0.00000000E+00  0.00000000E+00
  0.00000000E+00  0.00000000E+00  0.00000000E+00
  0.00000000E+00  0.00000000E+00  0.00000000E+00
  0.00000000E+00  0.00000000E+00  0.00000000E+00
  0.00000000E+00  0.00000000E+00  0.00000000E+00
  0.00000000E+00  0.00000000E+00  0.00000000E+00
  0.00000000E+00  0.00000000E+00  0.00000000E+00
  0.00000000E+00  0.00000000E+00  0.00000000E+00
  0.00000000E+00  0.00000000E+00  0.00000000E+00
  0.00000000E+00  0.00000000E+00  0.00000000E+00
  0.00000000E+00  0.00000000E+00  0.00000000E+00
  0.00000000E+00  0.00000000E+00  0.00000000E+00
  0.00000000E+00  0.00000000E+00  0.00000000E+00
  0.00000000E+00  0.00000000E+00  0.00000000E+00
  0.00000000E+00  0.00000000E+00  0.00000000E+00
  0.00000000E+00  0.00000000E+00  0.00000000E+00
  0.00000000E+00  0.00000000E+00  0.00000000E+00
  0.00000000E+00  0.00000000E+00  0.00000000E+00
  0.00000000E+00  0.00000000E+00  0.00000000E+00
  0.00000000E+00  0.00000000E+00  0.00000000E+00
  0.00000000E+00  0.00000000E+00  0.00000000E+00
  0.00000000E+00  0.00000000E+00  0.00000000E+00
  0.00000000E+00  0.00000000E+00  0.00000000E+00
  0.00000000E+00  0.00000000E+00  0.00000000E+00
  0.00000000E+00  0.00000000E+00  0.00000000E+00
  0.00000000E+00  0.00000000E+00  0.00000000E+00
  0.00000000E+00  0.00000000E+00  0.00000000E+00
  0.00000000E+00  0.00000000E+00  0.00000000E+00
  0.00000000E+00  0.00000000E+00  0.00000000E+00
  0.00000000E+00  0.00000000E+00  0.00000000E+00
  0.00000000E+00  0.00000000E+00  0.00000000E+00
  0.00000000E+00  0.00000000E+00  0.00000000E+00
  0.00000000E+00  0.00000000E+00  0.00000000E+00
  0.00000000E+00  0.00000000E+00  0.00000000E+00
  0.00000000E+00  0.00000000E+00  0.00000000E+00
  0.00000000E+00  0.00000000E+00  0.00000000E+00
  0.00000000E+00  0.00000000E+00  0.00000000E+00
  0.00000000E+00  0.00000000E+00  0.00000000E+00
  0.00000000E+00  0.00000000E+00  0.00000000E+00
  0.00000000E+00  0.00000000E+00  0.00000000E+00
  0.00000000E+00  0.00000000E+00  0.00000000E+00
  0.00000000E+00  0.00000000E+00  0.00000000E+00
  0.00000000E+00  0.00000000E+00  0.00000000E+00
  0.00000000E+00  0.00000000E+00  0.00000000E+00
  0.00000000E+00  0.00000000E+00  0.00000000E+00
  0.00000000E+00  0.00000000E+00  0.00000000E+00
  0.00000000E+00  0.00000000E+00  0.00000000E+00
  0.00000000E+00  0.00000000E+00  0.00000000E+00
  0.00000000E+00  0.00000000E+00  0.00000000E+00
  0.00000000E+00  0.00000000E+00  0.00000000E+00
  0.00000000E+00  0.00000000E+00  0.00000000E+00
  0.00000000E+00  0.00000000E+00  0.00000000E+00
  0.00000000E+00  0.00000000E+00  0.00000000E+00
  0.00000000E+00  0.00000000E+00  0.00000000E+00
  0.00000000E+00  0.00000000E+00  0.00000000E+00
  0.00000000E+00  0.00000000E+00  0.00000000E+00
  0.00000000E+00  0.00000000E+00  0.00000000E+00
  0.00000000E+00  0.00000000E+00  0.00000000E+00
  0.00000000E+00  0.00000000E+00  0.00000000E+00
  0.00000000E+00  0.00000000E+00  0.00000000E+00
  0.00000000E+00  0.00000000E+00  0.00000000E+00
  0.00000000E+00  0.00000000E+00  0.00000000E+00
  0.00000000E+00  0.00000000E+00  0.00000000E+00
  0.00000000E+00  0.00000000E+00  0.00000000E+00
  0.00000000E+00  0.00000000E+00  0.00000000E+00
  0.00000000E+00  0.00000000E+00  0.00000000E+00
  0.00000000E+00  0.00000000E+00  0.00000000E+00
  0.00000000E+00  0.00000000E+00  0.00000000E+00
  0.00000000E+00  0.00000000E+00  0.00000000E+00
  0.00000000E+00  0.00000000E+00  0.00000000E+00
  0.00000000E+00  0.00000000E+00  0.00000000E+00
  0.00000000E+00  0.00000000E+00  0.00000000E+00
  0.00000000E+00  0.00000000E+00  0.00000000E+00
  0.00000000E+00  0.00000000E+00  0.00000000E+00
  0.00000000E+00  0.00000000E+00  0.00000000E+00
  0.00000000E+00  0.00000000E+00  0.00000000E+00
  0.00000000E+00  0.00000000E+00  0.00000000E+00
  0.00000000E+00  0.00000000E+00  0.00000000E+00
  0.00000000E+00  0.00000000E+00  0.00000000E+00
  0.00000000E+00  0.00000000E+00  0.00000000E+00
  0.00000000E+00  0.00000000E+00  0.00000000E+00
  0.00000000E+00  0.00000000E+00  0.00000000E+00
  0.00000000E+00  0.00000000E+00  0.00000000E+00
  0.00000000E+00  0.00000000E+00  0.00000000E+00
