H1 Ir16 O33                             
   1.00000000000000     
     6.3014313599999996    0.0000000000000000    0.0000000000000004
     3.1507156800000011    5.4571996379639227    0.0000000000000004
     0.0000000000000000    0.0000000000000000   40.2314321400000026
   H    Ir   O 
     1    16    33
Selective dynamics
Direct
  0.3322678804696464  0.5752834720228838  0.7491693037559538   T   T   T
  0.0011078246303175  0.0001053621710217  0.6854911959289846   T   T   T
  0.4961264822677072  0.5020323453066869  0.6931582103416256   T   T   T
  0.4996809070685760 -0.0000008384011562  0.6854635956364117   T   T   T
  0.0011379365425115  0.4984368480487976  0.6854436514710396   T   T   T
 -0.0004837120390973 -0.0004186175482303  0.5624458844747979   T   T   T
  0.5002302214736023  0.4998833867095863  0.5624771601014861   T   T   T
  0.5007764714860050 -0.0003845775002160  0.5624411855578619   T   T   T
 -0.0004844123738946  0.5009012438524881  0.5624461605634649   T   T   T
  0.0000000000000000  0.0000000000000000  0.4375000000000000   F   F   F
  0.5000000000000000  0.5000000000000000  0.4375000000000000   F   F   F
  0.5000000000000000  0.0000000000000000  0.4375000000000000   F   F   F
  0.0000000000000000  0.5000000000000000  0.4375000000000000   F   F   F
  0.0000000000000000  0.0000000000000000  0.3125000000000000   F   F   F
  0.5000000000000000  0.5000000000000000  0.3125000000000000   F   F   F
  0.5000000000000000  0.0000000000000000  0.3125000000000000   F   F   F
  0.0000000000000000  0.5000000000000000  0.3125000000000000   F   F   F
  0.6812723541920875  0.6792535511618797  0.7083830445360065   T   T   T
  0.1668066309750064  0.1664593028926712  0.7094539860933348   T   T   T
  0.1404815216033557  0.6794010551908810  0.7096282795862494   T   T   T
  0.6811463932864877  0.1391057058836938  0.7083944895264261   T   T   T
  0.6664820370289263  0.6665575461009360  0.5399276521520427   T   T   T
  0.1665633243698656  0.1667216508044873  0.5403580923260303   T   T   T
  0.1671830800653935  0.6664052925480527  0.5399678553953434   T   T   T
  0.6664822258235591  0.1669644114365653  0.5399270388541451   T   T   T
  0.3434725222080157  0.8136145992730223  0.6647916120981702   T   T   T
  0.8107435317160947  0.3442741841000872  0.6656085609931003   T   T   T
  0.8345210240944001  0.8326507554801470  0.6643932345805729   T   T   T
  0.3438432245239337  0.3425713646386688  0.6648258845021511   T   T   T
  0.3331377337771404  0.8336582286178119  0.5847442764640459   T   T   T
  0.8338531290854486  0.3330701313840916  0.5847990293322061   T   T   T
  0.8332342152560652  0.8333820782149787  0.5852320848557612   T   T   T
  0.3331382879951564  0.3332048970285998  0.5847460177533789   T   T   T
  0.6666666666666643  0.6666666666666643  0.4599284800000021   F   F   F
  0.1666666666666643  0.1666666666666643  0.4599284800000021   F   F   F
  0.1666666666666643  0.6666666666666643  0.4599284800000021   F   F   F
  0.6666666666666643  0.1666666666666643  0.4599284800000021   F   F   F
  0.6666666666666643  0.6666666666666643  0.2900715199999979   F   F   F
  0.1666666666666643  0.1666666666666643  0.2900715199999979   F   F   F
  0.1666666666666643  0.6666666666666643  0.2900715199999979   F   F   F
  0.6666666666666643  0.1666666666666643  0.2900715199999979   F   F   F
  0.3333333333333357  0.8333333333333357  0.4150715199999979   F   F   F
  0.8333333333333357  0.3333333333333357  0.4150715199999979   F   F   F
  0.8333333333333357  0.8333333333333357  0.4150715199999979   F   F   F
  0.3333333333333357  0.3333333333333357  0.4150715199999979   F   F   F
  0.3333333333333357  0.8333333333333357  0.3349284800000021   F   F   F
  0.8333333333333357  0.3333333333333357  0.3349284800000021   F   F   F
  0.8333333333333357  0.8333333333333357  0.3349284800000021   F   F   F
  0.3333333333333357  0.3333333333333357  0.3349284800000021   F   F   F
  0.5060863314902255  0.4973277371615235  0.7426845728390730   T   T   T
 
  0.00000000E+00  0.00000000E+00  0.00000000E+00
  0.00000000E+00  0.00000000E+00  0.00000000E+00
  0.00000000E+00  0.00000000E+00  0.00000000E+00
  0.00000000E+00  0.00000000E+00  0.00000000E+00
  0.00000000E+00  0.00000000E+00  0.00000000E+00
  0.00000000E+00  0.00000000E+00  0.00000000E+00
  0.00000000E+00  0.00000000E+00  0.00000000E+00
  0.00000000E+00  0.00000000E+00  0.00000000E+00
  0.00000000E+00  0.00000000E+00  0.00000000E+00
  0.00000000E+00  0.00000000E+00  0.00000000E+00
  0.00000000E+00  0.00000000E+00  0.00000000E+00
  0.00000000E+00  0.00000000E+00  0.00000000E+00
  0.00000000E+00  0.00000000E+00  0.00000000E+00
  0.00000000E+00  0.00000000E+00  0.00000000E+00
  0.00000000E+00  0.00000000E+00  0.00000000E+00
  0.00000000E+00  0.00000000E+00  0.00000000E+00
  0.00000000E+00  0.00000000E+00  0.00000000E+00
  0.00000000E+00  0.00000000E+00  0.00000000E+00
  0.00000000E+00  0.00000000E+00  0.00000000E+00
  0.00000000E+00  0.00000000E+00  0.00000000E+00
  0.00000000E+00  0.00000000E+00  0.00000000E+00
  0.00000000E+00  0.00000000E+00  0.00000000E+00
  0.00000000E+00  0.00000000E+00  0.00000000E+00
  0.00000000E+00  0.00000000E+00  0.00000000E+00
  0.00000000E+00  0.00000000E+00  0.00000000E+00
  0.00000000E+00  0.00000000E+00  0.00000000E+00
  0.00000000E+00  0.00000000E+00  0.00000000E+00
  0.00000000E+00  0.00000000E+00  0.00000000E+00
  0.00000000E+00  0.00000000E+00  0.00000000E+00
  0.00000000E+00  0.00000000E+00  0.00000000E+00
  0.00000000E+00  0.00000000E+00  0.00000000E+00
  0.00000000E+00  0.00000000E+00  0.00000000E+00
  0.00000000E+00  0.00000000E+00  0.00000000E+00
  0.00000000E+00  0.00000000E+00  0.00000000E+00
  0.00000000E+00  0.00000000E+00  0.00000000E+00
  0.00000000E+00  0.00000000E+00  0.00000000E+00
  0.00000000E+00  0.00000000E+00  0.00000000E+00
  0.00000000E+00  0.00000000E+00  0.00000000E+00
  0.00000000E+00  0.00000000E+00  0.00000000E+00
  0.00000000E+00  0.00000000E+00  0.00000000E+00
  0.00000000E+00  0.00000000E+00  0.00000000E+00
  0.00000000E+00  0.00000000E+00  0.00000000E+00
  0.00000000E+00  0.00000000E+00  0.00000000E+00
  0.00000000E+00  0.00000000E+00  0.00000000E+00
  0.00000000E+00  0.00000000E+00  0.00000000E+00
  0.00000000E+00  0.00000000E+00  0.00000000E+00
  0.00000000E+00  0.00000000E+00  0.00000000E+00
  0.00000000E+00  0.00000000E+00  0.00000000E+00
  0.00000000E+00  0.00000000E+00  0.00000000E+00
  0.00000000E+00  0.00000000E+00  0.00000000E+00
