Ir48 I1 O96                             
   1.00000000000000     
     9.5685210000000005    0.0000000000000000    0.0000000000000006
     0.0000000000000021   12.8550287399999998    0.0000000000000008
     0.0000000000000000    0.0000000000000000   32.1375718700000021
   Ir   I    O 
    48     1    96
Selective dynamics
Direct
  0.1666666666666643  0.2500000000000000  0.1499999999999986   F   F   F
  0.1666666666666643  0.7500000000000000  0.1499999999999986   F   F   F
  0.5000000000000000  0.2500000000000000  0.1499999999999986   F   F   F
  0.5000000000000000  0.7500000000000000  0.1499999999999986   F   F   F
  0.8333333333333357  0.2500000000000000  0.1499999999999986   F   F   F
  0.8333333333333357  0.7500000000000000  0.1499999999999986   F   F   F
  0.1666666666666643  0.0000000000000000  0.0499999999999972   F   F   F
  0.1666666666666643  0.5000000000000000  0.0499999999999972   F   F   F
  0.5000000000000000  0.0000000000000000  0.0499999999999972   F   F   F
  0.5000000000000000  0.5000000000000000  0.0499999999999972   F   F   F
  0.8333333333333357  0.0000000000000000  0.0499999999999972   F   F   F
  0.8333333333333357  0.5000000000000000  0.0499999999999972   F   F   F
  0.0000000000000000  0.2500000000000000  0.0499999999999972   F   F   F
  0.0000000000000000  0.7500000000000000  0.0499999999999972   F   F   F
  0.3333333333333357  0.2500000000000000  0.0499999999999972   F   F   F
  0.3333333333333357  0.7500000000000000  0.0499999999999972   F   F   F
  0.6666666666666643  0.2500000000000000  0.0499999999999972   F   F   F
  0.6666666666666643  0.7500000000000000  0.0499999999999972   F   F   F
  0.0000000000000000  0.0000000000000000  0.1499999999999986   F   F   F
  0.0000000000000000  0.5000000000000000  0.1499999999999986   F   F   F
  0.3333333333333357  0.0000000000000000  0.1499999999999986   F   F   F
  0.3333333333333357  0.5000000000000000  0.1499999999999986   F   F   F
  0.6666666666666643  0.0000000000000000  0.1499999999999986   F   F   F
  0.6666666666666643  0.5000000000000000  0.1499999999999986   F   F   F
  0.1664931344785485  0.2502115028339773  0.3505316778271021   T   T   T
  0.1665109369271688  0.7497665328730966  0.3505463311008319   T   T   T
  0.5001667975454205  0.2502235409145376  0.3505394428732312   T   T   T
  0.5001515655165442  0.7497546166773408  0.3505551659567229   T   T   T
  0.8333298179243147  0.2500242138063014  0.3506247190798567   T   T   T
  0.8333282353676340  0.7499666445589737  0.3506296961544593   T   T   T
  0.1665610724682898 -0.0000002043541247  0.2493949254966698   T   T   T
  0.1682427057118298  0.5000008027173755  0.2497003956324411   T   T   T
  0.5001082680256531  0.9999994965005468  0.2493949178455368   T   T   T
  0.4984363201035786  0.5000012609802920  0.2496956585102291   T   T   T
  0.8333332837607972  0.0000001643270786  0.2493033760421947   T   T   T
  0.8333365014245304  0.4999979857561122  0.2491922377871999   T   T   T
  0.0000028468350899  0.2501207886184877  0.2502495837845848   T   T   T
  0.0000026923373476  0.7498782521652875  0.2502531833159290   T   T   T
  0.3333350689533067  0.2498662831880438  0.2502684508730135   T   T   T
  0.3333357054833426  0.7501335683149559  0.2502762518608365   T   T   T
  0.6666643061505595  0.2501207183569836  0.2502501954449113   T   T   T
  0.6666638617144445  0.7498782796682215  0.2502545303423689   T   T   T
  0.9999724103348497  0.9999956579909015  0.3476003927988392   T   T   T
  0.0003136595735738  0.4999954747265685  0.3475038262005281   T   T   T
  0.3333381576485642  0.9999943734983564  0.3477075709589716   T   T   T
  0.3332740770805599  0.4999673504689837  0.3517092855101523   T   T   T
  0.6666932690006626  0.9999960020278406  0.3475980232343374   T   T   T
  0.6663072013109189  0.4999956861666707  0.3475031391676356   T   T   T
  0.3323693950268708  0.4992729586402066  0.4324837381463201   T   T   T
  0.0000000000000000  0.2500000000000000  0.1116707999999988   F   F   F
  0.0000000000000000  0.7500000000000000  0.1116707999999988   F   F   F
  0.3333333333333357  0.2500000000000000  0.1116707999999988   F   F   F
  0.3333333333333357  0.7500000000000000  0.1116707999999988   F   F   F
  0.6666666666666643  0.2500000000000000  0.1116707999999988   F   F   F
  0.6666666666666643  0.7500000000000000  0.1116707999999988   F   F   F
  0.0000000000000000  0.0000000000000000  0.0116707999999974   F   F   F
  0.0000000000000000  0.5000000000000000  0.0116707999999974   F   F   F
  0.3333333333333357  0.0000000000000000  0.0116707999999974   F   F   F
  0.3333333333333357  0.5000000000000000  0.0116707999999974   F   F   F
  0.6666666666666643  0.0000000000000000  0.0116707999999974   F   F   F
  0.6666666666666643  0.5000000000000000  0.0116707999999974   F   F   F
  0.1666666666666643  0.0958230000000029  0.1499999999999986   F   F   F
  0.1666666666666643  0.5958230000000029  0.1499999999999986   F   F   F
  0.5000000000000000  0.0958230000000029  0.1499999999999986   F   F   F
  0.5000000000000000  0.5958230000000029  0.1499999999999986   F   F   F
  0.8333333333333357  0.0958230000000029  0.1499999999999986   F   F   F
  0.8333333333333357  0.5958230000000029  0.1499999999999986   F   F   F
  0.1666666666666643  0.3458230000000029  0.0499999999999972   F   F   F
  0.1666666666666643  0.8458230000000029  0.0499999999999972   F   F   F
  0.5000000000000000  0.3458230000000029  0.0499999999999972   F   F   F
  0.5000000000000000  0.8458230000000029  0.0499999999999972   F   F   F
  0.8333333333333357  0.3458230000000029  0.0499999999999972   F   F   F
  0.8333333333333357  0.8458230000000029  0.0499999999999972   F   F   F
  0.0000000000000000  0.2500000000000000  0.1883291999999983   F   F   F
  0.0000000000000000  0.7500000000000000  0.1883291999999983   F   F   F
  0.3333333333333357  0.2500000000000000  0.1883291999999983   F   F   F
  0.3333333333333357  0.7500000000000000  0.1883291999999983   F   F   F
  0.6666666666666643  0.2500000000000000  0.1883291999999983   F   F   F
  0.6666666666666643  0.7500000000000000  0.1883291999999983   F   F   F
  0.0000000000000000  0.0000000000000000  0.0883291999999969   F   F   F
  0.0000000000000000  0.5000000000000000  0.0883291999999969   F   F   F
  0.3333333333333357  0.0000000000000000  0.0883291999999969   F   F   F
  0.3333333333333357  0.5000000000000000  0.0883291999999969   F   F   F
  0.6666666666666643  0.0000000000000000  0.0883291999999969   F   F   F
  0.6666666666666643  0.5000000000000000  0.0883291999999969   F   F   F
  0.1666666666666643  0.4041769999999971  0.1499999999999986   F   F   F
  0.1666666666666643  0.9041769999999971  0.1499999999999986   F   F   F
  0.5000000000000000  0.4041769999999971  0.1499999999999986   F   F   F
  0.5000000000000000  0.9041769999999971  0.1499999999999986   F   F   F
  0.8333333333333357  0.4041769999999971  0.1499999999999986   F   F   F
  0.8333333333333357  0.9041769999999971  0.1499999999999986   F   F   F
  0.1666666666666643  0.1541769999999971  0.0499999999999972   F   F   F
  0.1666666666666643  0.6541769999999971  0.0499999999999972   F   F   F
  0.5000000000000000  0.1541769999999971  0.0499999999999972   F   F   F
  0.5000000000000000  0.6541769999999971  0.0499999999999972   F   F   F
  0.8333333333333357  0.1541769999999971  0.0499999999999972   F   F   F
  0.8333333333333357  0.6541769999999971  0.0499999999999972   F   F   F
  0.9997585125395105  0.2499673126946209  0.3116642797704214   T   T   T
  0.9997704041631685  0.7500140177905982  0.3116654815299040   T   T   T
  0.3333374776980547  0.2500198566011395  0.3116822609360362   T   T   T
  0.3333383039108840  0.7499739387522092  0.3116865906581811   T   T   T
  0.6668972346483996  0.2499790517248356  0.3116672195915527   T   T   T
  0.6668846013608075  0.7500026423650628  0.3116685127180724   T   T   T
  0.0000197857873805  0.0000003938322945  0.2110501694379075   T   T   T
  0.0006815451925099  0.4999949593590063  0.2113085950019787   T   T   T
  0.3333351302717869 -0.0000003621326322  0.2111670102397269   T   T   T
  0.3333333740502149  0.4999950131194171  0.2112295840346564   T   T   T
  0.6666470156876627  0.0000005574113501  0.2110500443285254   T   T   T
  0.6659978951048372  0.4999947809688468  0.2113055312701049   T   T   T
  0.1664877089113214  0.0950594942845951  0.3516664296460047   T   T   T
  0.1652429166990711  0.5954862041050122  0.3504300605077052   T   T   T
  0.5001839109226165  0.0950626653653299  0.3516655182819211   T   T   T
  0.5013697350841769  0.5954677023362057  0.3504857655250049   T   T   T
  0.8333321764556502  0.0949415386044320  0.3517837613061426   T   T   T
  0.8333205525292326  0.5946903697185756  0.3515911606765891   T   T   T
  0.1669105760429320  0.3455545942547195  0.2500044967282801   T   T   T
  0.1666098232419447  0.8455234739001267  0.2502784230223546   T   T   T
  0.4997595007693631  0.3455546408016768  0.2500047203081564   T   T   T
  0.5000589333835371  0.8455251691914023  0.2502785938504219   T   T   T
  0.8333348311084575  0.3456284963449521  0.2501686689848913   T   T   T
  0.8333343939669485  0.8454098561066824  0.2501910289153345   T   T   T
  0.0002958247083859  0.2496045604907445  0.3872223490870615   T   T   T
  0.0003047692500113  0.7503976773365374  0.3872204395248045   T   T   T
  0.3333212680119197  0.2492791194947727  0.3870712012154712   T   T   T
  0.3333232773074090  0.7506876399271509  0.3870697757819825   T   T   T
  0.6663734335348022  0.2496030058800481  0.3872256091595073   T   T   T
  0.6663632836935265  0.7503994816708385  0.3872232997106362   T   T   T
  0.9997876087467517  0.9999964922947348  0.2871778565662931   T   T   T
  0.9998492964509117  0.5000103369611165  0.2870996222768996   T   T   T
  0.3333343372252975  0.9999940313126122  0.2874063641113964   T   T   T
  0.3333650993636084  0.5000476314890553  0.2879369919678193   T   T   T
  0.6668796352554494  0.9999963431263861  0.2871775977381575   T   T   T
  0.6668112524397627  0.5000102333633756  0.2870959942011265   T   T   T
  0.1652125127691521  0.4044812865749202  0.3503856644540127   T   T   T
  0.1664859966399582  0.9049221856869030  0.3516628133671308   T   T   T
  0.5014005561056695  0.4045007744429636  0.3504414470991040   T   T   T
  0.5001855300599136  0.9049183854368882  0.3516616386785959   T   T   T
  0.8333205802183330  0.4053067766621540  0.3515871875894184   T   T   T
  0.8333318482754117  0.9050507044341348  0.3517844466443030   T   T   T
  0.1666108166514419  0.1544753629588710  0.2502778622488012   T   T   T
  0.1669099153878901  0.6544469047605006  0.2500031622263593   T   T   T
  0.5000581072278611  0.1544734152658787  0.2502780248064357   T   T   T
  0.4997599562167718  0.6544471411228645  0.2500033480187063   T   T   T
  0.8333345124291431  0.1545902440229359  0.2501903907167408   T   T   T
  0.8333346770551562  0.6543698682484170  0.2501682560574465   T   T   T
 
  0.00000000E+00  0.00000000E+00  0.00000000E+00
  0.00000000E+00  0.00000000E+00  0.00000000E+00
  0.00000000E+00  0.00000000E+00  0.00000000E+00
  0.00000000E+00  0.00000000E+00  0.00000000E+00
  0.00000000E+00  0.00000000E+00  0.00000000E+00
  0.00000000E+00  0.00000000E+00  0.00000000E+00
  0.00000000E+00  0.00000000E+00  0.00000000E+00
  0.00000000E+00  0.00000000E+00  0.00000000E+00
  0.00000000E+00  0.00000000E+00  0.00000000E+00
  0.00000000E+00  0.00000000E+00  0.00000000E+00
  0.00000000E+00  0.00000000E+00  0.00000000E+00
  0.00000000E+00  0.00000000E+00  0.00000000E+00
  0.00000000E+00  0.00000000E+00  0.00000000E+00
  0.00000000E+00  0.00000000E+00  0.00000000E+00
  0.00000000E+00  0.00000000E+00  0.00000000E+00
  0.00000000E+00  0.00000000E+00  0.00000000E+00
  0.00000000E+00  0.00000000E+00  0.00000000E+00
  0.00000000E+00  0.00000000E+00  0.00000000E+00
  0.00000000E+00  0.00000000E+00  0.00000000E+00
  0.00000000E+00  0.00000000E+00  0.00000000E+00
  0.00000000E+00  0.00000000E+00  0.00000000E+00
  0.00000000E+00  0.00000000E+00  0.00000000E+00
  0.00000000E+00  0.00000000E+00  0.00000000E+00
  0.00000000E+00  0.00000000E+00  0.00000000E+00
  0.00000000E+00  0.00000000E+00  0.00000000E+00
  0.00000000E+00  0.00000000E+00  0.00000000E+00
  0.00000000E+00  0.00000000E+00  0.00000000E+00
  0.00000000E+00  0.00000000E+00  0.00000000E+00
  0.00000000E+00  0.00000000E+00  0.00000000E+00
  0.00000000E+00  0.00000000E+00  0.00000000E+00
  0.00000000E+00  0.00000000E+00  0.00000000E+00
  0.00000000E+00  0.00000000E+00  0.00000000E+00
  0.00000000E+00  0.00000000E+00  0.00000000E+00
  0.00000000E+00  0.00000000E+00  0.00000000E+00
  0.00000000E+00  0.00000000E+00  0.00000000E+00
  0.00000000E+00  0.00000000E+00  0.00000000E+00
  0.00000000E+00  0.00000000E+00  0.00000000E+00
  0.00000000E+00  0.00000000E+00  0.00000000E+00
  0.00000000E+00  0.00000000E+00  0.00000000E+00
  0.00000000E+00  0.00000000E+00  0.00000000E+00
  0.00000000E+00  0.00000000E+00  0.00000000E+00
  0.00000000E+00  0.00000000E+00  0.00000000E+00
  0.00000000E+00  0.00000000E+00  0.00000000E+00
  0.00000000E+00  0.00000000E+00  0.00000000E+00
  0.00000000E+00  0.00000000E+00  0.00000000E+00
  0.00000000E+00  0.00000000E+00  0.00000000E+00
  0.00000000E+00  0.00000000E+00  0.00000000E+00
  0.00000000E+00  0.00000000E+00  0.00000000E+00
  0.00000000E+00  0.00000000E+00  0.00000000E+00
  0.00000000E+00  0.00000000E+00  0.00000000E+00
  0.00000000E+00  0.00000000E+00  0.00000000E+00
  0.00000000E+00  0.00000000E+00  0.00000000E+00
  0.00000000E+00  0.00000000E+00  0.00000000E+00
  0.00000000E+00  0.00000000E+00  0.00000000E+00
  0.00000000E+00  0.00000000E+00  0.00000000E+00
  0.00000000E+00  0.00000000E+00  0.00000000E+00
  0.00000000E+00  0.00000000E+00  0.00000000E+00
  0.00000000E+00  0.00000000E+00  0.00000000E+00
  0.00000000E+00  0.00000000E+00  0.00000000E+00
  0.00000000E+00  0.00000000E+00  0.00000000E+00
  0.00000000E+00  0.00000000E+00  0.00000000E+00
  0.00000000E+00  0.00000000E+00  0.00000000E+00
  0.00000000E+00  0.00000000E+00  0.00000000E+00
  0.00000000E+00  0.00000000E+00  0.00000000E+00
  0.00000000E+00  0.00000000E+00  0.00000000E+00
  0.00000000E+00  0.00000000E+00  0.00000000E+00
  0.00000000E+00  0.00000000E+00  0.00000000E+00
  0.00000000E+00  0.00000000E+00  0.00000000E+00
  0.00000000E+00  0.00000000E+00  0.00000000E+00
  0.00000000E+00  0.00000000E+00  0.00000000E+00
  0.00000000E+00  0.00000000E+00  0.00000000E+00
  0.00000000E+00  0.00000000E+00  0.00000000E+00
  0.00000000E+00  0.00000000E+00  0.00000000E+00
  0.00000000E+00  0.00000000E+00  0.00000000E+00
  0.00000000E+00  0.00000000E+00  0.00000000E+00
  0.00000000E+00  0.00000000E+00  0.00000000E+00
  0.00000000E+00  0.00000000E+00  0.00000000E+00
  0.00000000E+00  0.00000000E+00  0.00000000E+00
  0.00000000E+00  0.00000000E+00  0.00000000E+00
  0.00000000E+00  0.00000000E+00  0.00000000E+00
  0.00000000E+00  0.00000000E+00  0.00000000E+00
  0.00000000E+00  0.00000000E+00  0.00000000E+00
  0.00000000E+00  0.00000000E+00  0.00000000E+00
  0.00000000E+00  0.00000000E+00  0.00000000E+00
  0.00000000E+00  0.00000000E+00  0.00000000E+00
  0.00000000E+00  0.00000000E+00  0.00000000E+00
  0.00000000E+00  0.00000000E+00  0.00000000E+00
  0.00000000E+00  0.00000000E+00  0.00000000E+00
  0.00000000E+00  0.00000000E+00  0.00000000E+00
  0.00000000E+00  0.00000000E+00  0.00000000E+00
  0.00000000E+00  0.00000000E+00  0.00000000E+00
  0.00000000E+00  0.00000000E+00  0.00000000E+00
  0.00000000E+00  0.00000000E+00  0.00000000E+00
  0.00000000E+00  0.00000000E+00  0.00000000E+00
  0.00000000E+00  0.00000000E+00  0.00000000E+00
  0.00000000E+00  0.00000000E+00  0.00000000E+00
  0.00000000E+00  0.00000000E+00  0.00000000E+00
  0.00000000E+00  0.00000000E+00  0.00000000E+00
  0.00000000E+00  0.00000000E+00  0.00000000E+00
  0.00000000E+00  0.00000000E+00  0.00000000E+00
  0.00000000E+00  0.00000000E+00  0.00000000E+00
  0.00000000E+00  0.00000000E+00  0.00000000E+00
  0.00000000E+00  0.00000000E+00  0.00000000E+00
  0.00000000E+00  0.00000000E+00  0.00000000E+00
  0.00000000E+00  0.00000000E+00  0.00000000E+00
  0.00000000E+00  0.00000000E+00  0.00000000E+00
  0.00000000E+00  0.00000000E+00  0.00000000E+00
  0.00000000E+00  0.00000000E+00  0.00000000E+00
  0.00000000E+00  0.00000000E+00  0.00000000E+00
  0.00000000E+00  0.00000000E+00  0.00000000E+00
  0.00000000E+00  0.00000000E+00  0.00000000E+00
  0.00000000E+00  0.00000000E+00  0.00000000E+00
  0.00000000E+00  0.00000000E+00  0.00000000E+00
  0.00000000E+00  0.00000000E+00  0.00000000E+00
  0.00000000E+00  0.00000000E+00  0.00000000E+00
  0.00000000E+00  0.00000000E+00  0.00000000E+00
  0.00000000E+00  0.00000000E+00  0.00000000E+00
  0.00000000E+00  0.00000000E+00  0.00000000E+00
  0.00000000E+00  0.00000000E+00  0.00000000E+00
  0.00000000E+00  0.00000000E+00  0.00000000E+00
  0.00000000E+00  0.00000000E+00  0.00000000E+00
  0.00000000E+00  0.00000000E+00  0.00000000E+00
  0.00000000E+00  0.00000000E+00  0.00000000E+00
  0.00000000E+00  0.00000000E+00  0.00000000E+00
  0.00000000E+00  0.00000000E+00  0.00000000E+00
  0.00000000E+00  0.00000000E+00  0.00000000E+00
  0.00000000E+00  0.00000000E+00  0.00000000E+00
  0.00000000E+00  0.00000000E+00  0.00000000E+00
  0.00000000E+00  0.00000000E+00  0.00000000E+00
  0.00000000E+00  0.00000000E+00  0.00000000E+00
  0.00000000E+00  0.00000000E+00  0.00000000E+00
  0.00000000E+00  0.00000000E+00  0.00000000E+00
  0.00000000E+00  0.00000000E+00  0.00000000E+00
  0.00000000E+00  0.00000000E+00  0.00000000E+00
  0.00000000E+00  0.00000000E+00  0.00000000E+00
  0.00000000E+00  0.00000000E+00  0.00000000E+00
  0.00000000E+00  0.00000000E+00  0.00000000E+00
  0.00000000E+00  0.00000000E+00  0.00000000E+00
  0.00000000E+00  0.00000000E+00  0.00000000E+00
  0.00000000E+00  0.00000000E+00  0.00000000E+00
  0.00000000E+00  0.00000000E+00  0.00000000E+00
  0.00000000E+00  0.00000000E+00  0.00000000E+00
  0.00000000E+00  0.00000000E+00  0.00000000E+00
  0.00000000E+00  0.00000000E+00  0.00000000E+00
  0.00000000E+00  0.00000000E+00  0.00000000E+00
