Ir47 S1 O100                            
   1.00000000000000     
     9.5685210000000005    0.0000000000000000    0.0000000000000006
     0.0000000000000021   12.8550287399999998    0.0000000000000008
     0.0000000000000000    0.0000000000000000   32.1375718700000021
   Ir   S    O 
    47     1   100
Selective dynamics
Direct
  0.1666666666666643  0.2500000000000000  0.1499999999999986   F   F   F
  0.1666666666666643  0.7500000000000000  0.1499999999999986   F   F   F
  0.5000000000000000  0.2500000000000000  0.1499999999999986   F   F   F
  0.5000000000000000  0.7500000000000000  0.1499999999999986   F   F   F
  0.8333333333333357  0.2500000000000000  0.1499999999999986   F   F   F
  0.8333333333333357  0.7500000000000000  0.1499999999999986   F   F   F
  0.1666666666666643  0.0000000000000000  0.0499999999999972   F   F   F
  0.1666666666666643  0.5000000000000000  0.0499999999999972   F   F   F
  0.5000000000000000  0.0000000000000000  0.0499999999999972   F   F   F
  0.5000000000000000  0.5000000000000000  0.0499999999999972   F   F   F
  0.8333333333333357  0.0000000000000000  0.0499999999999972   F   F   F
  0.8333333333333357  0.5000000000000000  0.0499999999999972   F   F   F
  0.0000000000000000  0.2500000000000000  0.0499999999999972   F   F   F
  0.0000000000000000  0.7500000000000000  0.0499999999999972   F   F   F
  0.3333333333333357  0.2500000000000000  0.0499999999999972   F   F   F
  0.3333333333333357  0.7500000000000000  0.0499999999999972   F   F   F
  0.6666666666666643  0.2500000000000000  0.0499999999999972   F   F   F
  0.6666666666666643  0.7500000000000000  0.0499999999999972   F   F   F
  0.0000000000000000  0.0000000000000000  0.1499999999999986   F   F   F
  0.0000000000000000  0.5000000000000000  0.1499999999999986   F   F   F
  0.3333333333333357  0.0000000000000000  0.1499999999999986   F   F   F
  0.3333333333333357  0.5000000000000000  0.1499999999999986   F   F   F
  0.6666666666666643  0.0000000000000000  0.1499999999999986   F   F   F
  0.6666666666666643  0.5000000000000000  0.1499999999999986   F   F   F
  0.1677169628786978  0.2528167715943558  0.3509463484666020   T   T   T
  0.1676588668347466  0.7431704931330723  0.3511941784585126   T   T   T
  0.4998654273150668  0.2458055237480443  0.3499549214123399   T   T   T
  0.4998561589649115  0.7506889375601845  0.3505015426998990   T   T   T
  0.8320114905359829  0.2528126818737018  0.3509459095393433   T   T   T
  0.8320321679362838  0.7431663928249364  0.3511937017188153   T   T   T
  0.1666822712069648  0.0000294786091737  0.2494778244583810   T   T   T
  0.1631737135512991  0.4999979930583496  0.2497023208256692   T   T   T
  0.4999568781662209  0.0000318761860816  0.2496166094784682   T   T   T
  0.4999394784327613  0.5002929484886407  0.2498613099033056   T   T   T
  0.8332351733527419  0.0000343143639890  0.2494793762297965   T   T   T
  0.8366920996919103  0.4999989727737846  0.2497120453169961   T   T   T
 -0.0000535219507031  0.2502717620499962  0.2504465472006900   T   T   T
 -0.0000608105388605  0.7497099897498682  0.2505383554148602   T   T   T
  0.3332327734088524  0.2502817640394157  0.2501838546178198   T   T   T
  0.3331609996609143  0.7497587846241269  0.2503307606999255   T   T   T
  0.6666679213142954  0.2502868086869923  0.2501844588324059   T   T   T
  0.6667244774137873  0.7497675723544796  0.2503263198290072   T   T   T
 -0.0001395514229360 -0.0018836242677942  0.3471525914052715   T   T   T
  0.3316704063476291 -0.0021208338387608  0.3478993599971833   T   T   T
  0.3330424052947652  0.4975538638668887  0.3498059516107675   T   T   T
  0.6680717755351852 -0.0021215434695122  0.3478958831348292   T   T   T
  0.6666475599119984  0.4975447265397945  0.3498184822533298   T   T   T
  0.4997836218868544  0.5136451291148996  0.4367276728599917   T   T   T
  0.0000000000000000  0.2500000000000000  0.1116707999999988   F   F   F
  0.0000000000000000  0.7500000000000000  0.1116707999999988   F   F   F
  0.3333333333333357  0.2500000000000000  0.1116707999999988   F   F   F
  0.3333333333333357  0.7500000000000000  0.1116707999999988   F   F   F
  0.6666666666666643  0.2500000000000000  0.1116707999999988   F   F   F
  0.6666666666666643  0.7500000000000000  0.1116707999999988   F   F   F
  0.0000000000000000  0.0000000000000000  0.0116707999999974   F   F   F
  0.0000000000000000  0.5000000000000000  0.0116707999999974   F   F   F
  0.3333333333333357  0.0000000000000000  0.0116707999999974   F   F   F
  0.3333333333333357  0.5000000000000000  0.0116707999999974   F   F   F
  0.6666666666666643  0.0000000000000000  0.0116707999999974   F   F   F
  0.6666666666666643  0.5000000000000000  0.0116707999999974   F   F   F
  0.1666666666666643  0.0958230000000029  0.1499999999999986   F   F   F
  0.1666666666666643  0.5958230000000029  0.1499999999999986   F   F   F
  0.5000000000000000  0.0958230000000029  0.1499999999999986   F   F   F
  0.5000000000000000  0.5958230000000029  0.1499999999999986   F   F   F
  0.8333333333333357  0.0958230000000029  0.1499999999999986   F   F   F
  0.8333333333333357  0.5958230000000029  0.1499999999999986   F   F   F
  0.1666666666666643  0.3458230000000029  0.0499999999999972   F   F   F
  0.1666666666666643  0.8458230000000029  0.0499999999999972   F   F   F
  0.5000000000000000  0.3458230000000029  0.0499999999999972   F   F   F
  0.5000000000000000  0.8458230000000029  0.0499999999999972   F   F   F
  0.8333333333333357  0.3458230000000029  0.0499999999999972   F   F   F
  0.8333333333333357  0.8458230000000029  0.0499999999999972   F   F   F
  0.0000000000000000  0.2500000000000000  0.1883291999999983   F   F   F
  0.0000000000000000  0.7500000000000000  0.1883291999999983   F   F   F
  0.3333333333333357  0.2500000000000000  0.1883291999999983   F   F   F
  0.3333333333333357  0.7500000000000000  0.1883291999999983   F   F   F
  0.6666666666666643  0.2500000000000000  0.1883291999999983   F   F   F
  0.6666666666666643  0.7500000000000000  0.1883291999999983   F   F   F
  0.0000000000000000  0.0000000000000000  0.0883291999999969   F   F   F
  0.0000000000000000  0.5000000000000000  0.0883291999999969   F   F   F
  0.3333333333333357  0.0000000000000000  0.0883291999999969   F   F   F
  0.3333333333333357  0.5000000000000000  0.0883291999999969   F   F   F
  0.6666666666666643  0.0000000000000000  0.0883291999999969   F   F   F
  0.6666666666666643  0.5000000000000000  0.0883291999999969   F   F   F
  0.1666666666666643  0.4041769999999971  0.1499999999999986   F   F   F
  0.1666666666666643  0.9041769999999971  0.1499999999999986   F   F   F
  0.5000000000000000  0.4041769999999971  0.1499999999999986   F   F   F
  0.5000000000000000  0.9041769999999971  0.1499999999999986   F   F   F
  0.8333333333333357  0.4041769999999971  0.1499999999999986   F   F   F
  0.8333333333333357  0.9041769999999971  0.1499999999999986   F   F   F
  0.1666666666666643  0.1541769999999971  0.0499999999999972   F   F   F
  0.1666666666666643  0.6541769999999971  0.0499999999999972   F   F   F
  0.5000000000000000  0.1541769999999971  0.0499999999999972   F   F   F
  0.5000000000000000  0.6541769999999971  0.0499999999999972   F   F   F
  0.8333333333333357  0.1541769999999971  0.0499999999999972   F   F   F
  0.8333333333333357  0.6541769999999971  0.0499999999999972   F   F   F
 -0.0001313125603235  0.2516947626672115  0.3119782157009985   T   T   T
 -0.0001383696049490  0.7455556503825526  0.3120417866844525   T   T   T
  0.3330341907979958  0.2458053051263654  0.3114949206855455   T   T   T
  0.3333350455270693  0.7509640640520999  0.3117394698090673   T   T   T
  0.6667218672361586  0.2458209609871461  0.3114935169602667   T   T   T
  0.6663902610044813  0.7509664481195064  0.3117362615410237   T   T   T
 -0.0000369056433618 -0.0007739874591365  0.2111562880322266   T   T   T
 -0.0000585372458475  0.4998722544722861  0.2110456684598619   T   T   T
  0.3335774953650433 -0.0007507184113320  0.2111773086833599   T   T   T
  0.3341150848072956  0.4999448882248906  0.2116428976299744   T   T   T
  0.6663490521669833 -0.0007513118612087  0.2111774289016765   T   T   T
  0.6657915101102794  0.4999503578490469  0.2116465719542339   T   T   T
  0.1653536191737545  0.0944050172485731  0.3512468080814807   T   T   T
  0.1819012607548957  0.5977810235521920  0.3519487389789475   T   T   T
  0.4998774561700114  0.0915461808663320  0.3519418016709890   T   T   T
  0.4998349074250533  0.5950820193958936  0.3480440695258935   T   T   T
  0.8343761163011613  0.0944025301753957  0.3512388938715750   T   T   T
  0.8177105831219946  0.5977966080550701  0.3519847317027205   T   T   T
  0.1660738023006219  0.3460213431353554  0.2496496525162555   T   T   T
  0.1664448316039120  0.8454413957249225  0.2508285423826033   T   T   T
  0.4999482825251650  0.3459767239959508  0.2498366958266177   T   T   T
  0.4999549615299981  0.8454029529770783  0.2506273419289713   T   T   T
  0.8338235734346466  0.3460185815146217  0.2496490765831568   T   T   T
  0.8334496650308667  0.8454441704008672  0.2508234104927562   T   T   T
 -0.0001251306656480  0.2450243822513171  0.3871511897214175   T   T   T
 -0.0001511467214920  0.7521707239431491  0.3873544992916347   T   T   T
  0.3345797578696873  0.2425807412044108  0.3866714302265904   T   T   T
  0.3335719127240404  0.7573187200106390  0.3868717995852383   T   T   T
  0.6651542182142236  0.2425741075453829  0.3866720596321050   T   T   T
  0.6661340298606061  0.7573844354931580  0.3868706914875659   T   T   T
 -0.0000488322559368  0.0041125595183403  0.2872446487458278   T   T   T
 -0.0000634147196510  0.5005230207335608  0.2862816969402531   T   T   T
  0.3331398670311395  0.0036798283527886  0.2875424147834408   T   T   T
  0.3295199155222436  0.5011392134280661  0.2878148121428895   T   T   T
  0.6667513497564229  0.0037140496557497  0.2875357188496158   T   T   T
  0.6703209823793026  0.5011421490914459  0.2878209061972752   T   T   T
  0.1790053265271294  0.3985094830200465  0.3504454357062237   T   T   T
  0.1650698571155985  0.9022687665915338  0.3512796498714116   T   T   T
  0.4998399585520460  0.4005271191358675  0.3442599525304353   T   T   T
  0.4998726633876728  0.9050349045748280  0.3520093511967393   T   T   T
  0.8207239259018342  0.3985054819787762  0.3504599253689297   T   T   T
  0.8346475476458468  0.9022701182329630  0.3512626449865246   T   T   T
  0.1665631011688365  0.1549087242790256  0.2500499239149988   T   T   T
  0.1660648682357286  0.6541350307870493  0.2493631814415623   T   T   T
  0.4999520071419307  0.1549275207115289  0.2498927682498187   T   T   T
  0.4999455635899099  0.6543650557646590  0.2496375618160388   T   T   T
  0.8333481512369496  0.1549147556499969  0.2500484884633741   T   T   T
  0.8338194301382779  0.6541357608925541  0.2493640612553986   T   T   T
  0.6346786407699587  0.4806052283189096  0.4107322104864953   T   T   T
  0.4996941758132946  0.4474793488254387  0.4724874434185051   T   T   T
  0.4999631732221305  0.6249623719005981  0.4413897608890730   T   T   T
  0.3648142278643134  0.4808351574609123  0.4107313122315755   T   T   T
 
  0.00000000E+00  0.00000000E+00  0.00000000E+00
  0.00000000E+00  0.00000000E+00  0.00000000E+00
  0.00000000E+00  0.00000000E+00  0.00000000E+00
  0.00000000E+00  0.00000000E+00  0.00000000E+00
  0.00000000E+00  0.00000000E+00  0.00000000E+00
  0.00000000E+00  0.00000000E+00  0.00000000E+00
  0.00000000E+00  0.00000000E+00  0.00000000E+00
  0.00000000E+00  0.00000000E+00  0.00000000E+00
  0.00000000E+00  0.00000000E+00  0.00000000E+00
  0.00000000E+00  0.00000000E+00  0.00000000E+00
  0.00000000E+00  0.00000000E+00  0.00000000E+00
  0.00000000E+00  0.00000000E+00  0.00000000E+00
  0.00000000E+00  0.00000000E+00  0.00000000E+00
  0.00000000E+00  0.00000000E+00  0.00000000E+00
  0.00000000E+00  0.00000000E+00  0.00000000E+00
  0.00000000E+00  0.00000000E+00  0.00000000E+00
  0.00000000E+00  0.00000000E+00  0.00000000E+00
  0.00000000E+00  0.00000000E+00  0.00000000E+00
  0.00000000E+00  0.00000000E+00  0.00000000E+00
  0.00000000E+00  0.00000000E+00  0.00000000E+00
  0.00000000E+00  0.00000000E+00  0.00000000E+00
  0.00000000E+00  0.00000000E+00  0.00000000E+00
  0.00000000E+00  0.00000000E+00  0.00000000E+00
  0.00000000E+00  0.00000000E+00  0.00000000E+00
  0.00000000E+00  0.00000000E+00  0.00000000E+00
  0.00000000E+00  0.00000000E+00  0.00000000E+00
  0.00000000E+00  0.00000000E+00  0.00000000E+00
  0.00000000E+00  0.00000000E+00  0.00000000E+00
  0.00000000E+00  0.00000000E+00  0.00000000E+00
  0.00000000E+00  0.00000000E+00  0.00000000E+00
  0.00000000E+00  0.00000000E+00  0.00000000E+00
  0.00000000E+00  0.00000000E+00  0.00000000E+00
  0.00000000E+00  0.00000000E+00  0.00000000E+00
  0.00000000E+00  0.00000000E+00  0.00000000E+00
  0.00000000E+00  0.00000000E+00  0.00000000E+00
  0.00000000E+00  0.00000000E+00  0.00000000E+00
  0.00000000E+00  0.00000000E+00  0.00000000E+00
  0.00000000E+00  0.00000000E+00  0.00000000E+00
  0.00000000E+00  0.00000000E+00  0.00000000E+00
  0.00000000E+00  0.00000000E+00  0.00000000E+00
  0.00000000E+00  0.00000000E+00  0.00000000E+00
  0.00000000E+00  0.00000000E+00  0.00000000E+00
  0.00000000E+00  0.00000000E+00  0.00000000E+00
  0.00000000E+00  0.00000000E+00  0.00000000E+00
  0.00000000E+00  0.00000000E+00  0.00000000E+00
  0.00000000E+00  0.00000000E+00  0.00000000E+00
  0.00000000E+00  0.00000000E+00  0.00000000E+00
  0.00000000E+00  0.00000000E+00  0.00000000E+00
  0.00000000E+00  0.00000000E+00  0.00000000E+00
  0.00000000E+00  0.00000000E+00  0.00000000E+00
  0.00000000E+00  0.00000000E+00  0.00000000E+00
  0.00000000E+00  0.00000000E+00  0.00000000E+00
  0.00000000E+00  0.00000000E+00  0.00000000E+00
  0.00000000E+00  0.00000000E+00  0.00000000E+00
  0.00000000E+00  0.00000000E+00  0.00000000E+00
  0.00000000E+00  0.00000000E+00  0.00000000E+00
  0.00000000E+00  0.00000000E+00  0.00000000E+00
  0.00000000E+00  0.00000000E+00  0.00000000E+00
  0.00000000E+00  0.00000000E+00  0.00000000E+00
  0.00000000E+00  0.00000000E+00  0.00000000E+00
  0.00000000E+00  0.00000000E+00  0.00000000E+00
  0.00000000E+00  0.00000000E+00  0.00000000E+00
  0.00000000E+00  0.00000000E+00  0.00000000E+00
  0.00000000E+00  0.00000000E+00  0.00000000E+00
  0.00000000E+00  0.00000000E+00  0.00000000E+00
  0.00000000E+00  0.00000000E+00  0.00000000E+00
  0.00000000E+00  0.00000000E+00  0.00000000E+00
  0.00000000E+00  0.00000000E+00  0.00000000E+00
  0.00000000E+00  0.00000000E+00  0.00000000E+00
  0.00000000E+00  0.00000000E+00  0.00000000E+00
  0.00000000E+00  0.00000000E+00  0.00000000E+00
  0.00000000E+00  0.00000000E+00  0.00000000E+00
  0.00000000E+00  0.00000000E+00  0.00000000E+00
  0.00000000E+00  0.00000000E+00  0.00000000E+00
  0.00000000E+00  0.00000000E+00  0.00000000E+00
  0.00000000E+00  0.00000000E+00  0.00000000E+00
  0.00000000E+00  0.00000000E+00  0.00000000E+00
  0.00000000E+00  0.00000000E+00  0.00000000E+00
  0.00000000E+00  0.00000000E+00  0.00000000E+00
  0.00000000E+00  0.00000000E+00  0.00000000E+00
  0.00000000E+00  0.00000000E+00  0.00000000E+00
  0.00000000E+00  0.00000000E+00  0.00000000E+00
  0.00000000E+00  0.00000000E+00  0.00000000E+00
  0.00000000E+00  0.00000000E+00  0.00000000E+00
  0.00000000E+00  0.00000000E+00  0.00000000E+00
  0.00000000E+00  0.00000000E+00  0.00000000E+00
  0.00000000E+00  0.00000000E+00  0.00000000E+00
  0.00000000E+00  0.00000000E+00  0.00000000E+00
  0.00000000E+00  0.00000000E+00  0.00000000E+00
  0.00000000E+00  0.00000000E+00  0.00000000E+00
  0.00000000E+00  0.00000000E+00  0.00000000E+00
  0.00000000E+00  0.00000000E+00  0.00000000E+00
  0.00000000E+00  0.00000000E+00  0.00000000E+00
  0.00000000E+00  0.00000000E+00  0.00000000E+00
  0.00000000E+00  0.00000000E+00  0.00000000E+00
  0.00000000E+00  0.00000000E+00  0.00000000E+00
  0.00000000E+00  0.00000000E+00  0.00000000E+00
  0.00000000E+00  0.00000000E+00  0.00000000E+00
  0.00000000E+00  0.00000000E+00  0.00000000E+00
  0.00000000E+00  0.00000000E+00  0.00000000E+00
  0.00000000E+00  0.00000000E+00  0.00000000E+00
  0.00000000E+00  0.00000000E+00  0.00000000E+00
  0.00000000E+00  0.00000000E+00  0.00000000E+00
  0.00000000E+00  0.00000000E+00  0.00000000E+00
  0.00000000E+00  0.00000000E+00  0.00000000E+00
  0.00000000E+00  0.00000000E+00  0.00000000E+00
  0.00000000E+00  0.00000000E+00  0.00000000E+00
  0.00000000E+00  0.00000000E+00  0.00000000E+00
  0.00000000E+00  0.00000000E+00  0.00000000E+00
  0.00000000E+00  0.00000000E+00  0.00000000E+00
  0.00000000E+00  0.00000000E+00  0.00000000E+00
  0.00000000E+00  0.00000000E+00  0.00000000E+00
  0.00000000E+00  0.00000000E+00  0.00000000E+00
  0.00000000E+00  0.00000000E+00  0.00000000E+00
  0.00000000E+00  0.00000000E+00  0.00000000E+00
  0.00000000E+00  0.00000000E+00  0.00000000E+00
  0.00000000E+00  0.00000000E+00  0.00000000E+00
  0.00000000E+00  0.00000000E+00  0.00000000E+00
  0.00000000E+00  0.00000000E+00  0.00000000E+00
  0.00000000E+00  0.00000000E+00  0.00000000E+00
  0.00000000E+00  0.00000000E+00  0.00000000E+00
  0.00000000E+00  0.00000000E+00  0.00000000E+00
  0.00000000E+00  0.00000000E+00  0.00000000E+00
  0.00000000E+00  0.00000000E+00  0.00000000E+00
  0.00000000E+00  0.00000000E+00  0.00000000E+00
  0.00000000E+00  0.00000000E+00  0.00000000E+00
  0.00000000E+00  0.00000000E+00  0.00000000E+00
  0.00000000E+00  0.00000000E+00  0.00000000E+00
  0.00000000E+00  0.00000000E+00  0.00000000E+00
  0.00000000E+00  0.00000000E+00  0.00000000E+00
  0.00000000E+00  0.00000000E+00  0.00000000E+00
  0.00000000E+00  0.00000000E+00  0.00000000E+00
  0.00000000E+00  0.00000000E+00  0.00000000E+00
  0.00000000E+00  0.00000000E+00  0.00000000E+00
  0.00000000E+00  0.00000000E+00  0.00000000E+00
  0.00000000E+00  0.00000000E+00  0.00000000E+00
  0.00000000E+00  0.00000000E+00  0.00000000E+00
  0.00000000E+00  0.00000000E+00  0.00000000E+00
  0.00000000E+00  0.00000000E+00  0.00000000E+00
  0.00000000E+00  0.00000000E+00  0.00000000E+00
  0.00000000E+00  0.00000000E+00  0.00000000E+00
  0.00000000E+00  0.00000000E+00  0.00000000E+00
  0.00000000E+00  0.00000000E+00  0.00000000E+00
  0.00000000E+00  0.00000000E+00  0.00000000E+00
  0.00000000E+00  0.00000000E+00  0.00000000E+00
  0.00000000E+00  0.00000000E+00  0.00000000E+00
  0.00000000E+00  0.00000000E+00  0.00000000E+00
  0.00000000E+00  0.00000000E+00  0.00000000E+00
