H2 Ir16 O34                             
   1.00000000000000     
     6.3822810800000003    0.0000000000000000    0.0000000000000004
     0.0000000000000010    6.4172767899999998    0.0000000000000004
     0.0000000000000000    0.0000000000000000   32.0863839299999967
   H    Ir   O 
     2    16    34
Selective dynamics
Direct
  0.8718323665807209  0.0196486283821765  0.4229358375718897   T   T   T
  0.3717851871191771  0.0196451940347697  0.4229304709595692   T   T   T
  0.2500000000000000  0.5000000000000000  0.1499999999999986   F   F   F
  0.7500000000000000  0.5000000000000000  0.1499999999999986   F   F   F
  0.2500000000000000  0.0000000000000000  0.0499999999999972   F   F   F
  0.7500000000000000  0.0000000000000000  0.0499999999999972   F   F   F
  0.0000000000000000  0.5000000000000000  0.0499999999999972   F   F   F
  0.5000000000000000  0.5000000000000000  0.0499999999999972   F   F   F
  0.0000000000000000  0.0000000000000000  0.1499999999999986   F   F   F
  0.5000000000000000  0.0000000000000000  0.1499999999999986   F   F   F
  0.2501414638098253  0.5045715532286317  0.3502938904158788   T   T   T
  0.7500438339891851  0.5045722992409706  0.3502960921922473   T   T   T
  0.2499284920983689  0.0004464929668825  0.2498848559162454   T   T   T
  0.7499028392373785  0.0004479001951211  0.2498845235880961   T   T   T
 -0.0000596634556395  0.5006234197908341  0.2501538133643673   T   T   T
  0.4998962024171614  0.5006231379863207  0.2501514942530887   T   T   T
  0.9992349953845293  0.0047753019837472  0.3501516218782024   T   T   T
  0.4991852491519516  0.0047704211622148  0.3501385190165688   T   T   T
  0.0000000000000000  0.5000000000000000  0.1117544100000032   F   F   F
  0.5000000000000000  0.5000000000000000  0.1117544100000032   F   F   F
  0.0000000000000000  0.0000000000000000  0.0117544100000018   F   F   F
  0.5000000000000000  0.0000000000000000  0.0117544100000018   F   F   F
  0.2500000000000000  0.8087720600000026  0.1499999999999986   F   F   F
  0.7500000000000000  0.8087720600000026  0.1499999999999986   F   F   F
  0.2500000000000000  0.3087720600000026  0.0499999999999972   F   F   F
  0.7500000000000000  0.3087720600000026  0.0499999999999972   F   F   F
  0.0000000000000000  0.5000000000000000  0.1882455900000011   F   F   F
  0.5000000000000000  0.5000000000000000  0.1882455900000011   F   F   F
  0.0000000000000000  0.0000000000000000  0.0882455899999997   F   F   F
  0.5000000000000000  0.0000000000000000  0.0882455899999997   F   F   F
  0.2500000000000000  0.1912279399999974  0.1499999999999986   F   F   F
  0.7500000000000000  0.1912279399999974  0.1499999999999986   F   F   F
  0.2500000000000000  0.6912279399999974  0.0499999999999972   F   F   F
  0.7500000000000000  0.6912279399999974  0.0499999999999972   F   F   F
  0.0000203123339997  0.5036746600577831  0.3116066770006294   T   T   T
  0.5000237798370172  0.5036735991680469  0.3116116053513551   T   T   T
 -0.0000282834968599  0.0002396621938888  0.2117174886626624   T   T   T
  0.4999805822205098  0.0002390462898794  0.2117183626700871   T   T   T
  0.2499952081899547  0.8131526340783599  0.3497833418802349   T   T   T
  0.7499788796957547  0.8131386997634933  0.3497820795197963   T   T   T
  0.2499071932884435  0.3092621827607872  0.2499308720657062   T   T   T
  0.7499053194686989  0.3092403216003046  0.2499321813285499   T   T   T
  0.9999496888317391  0.5048575614588706  0.3869417560428933   T   T   T
  0.4999548314100642  0.5048542930987117  0.3869364830283684   T   T   T
 -0.0000639867901188  0.0004344738890354  0.2879969180958057   T   T   T
  0.4999492270735656  0.0004310985511238  0.2880092277242551   T   T   T
  0.2498337687367781  0.1962868323305297  0.3490789327523615   T   T   T
  0.7498157291062542  0.1962967005101678  0.3490787880784296   T   T   T
  0.2499045979922926  0.6917329650047063  0.2497200523112666   T   T   T
  0.7499049380527407  0.6917547578156423  0.2497204448873071   T   T   T
  0.0124707511777871  0.0111654072162193  0.4104519596459190   T   T   T
  0.5124817422356972  0.0111512014472588  0.4104470080553626   T   T   T
 
  0.00000000E+00  0.00000000E+00  0.00000000E+00
  0.00000000E+00  0.00000000E+00  0.00000000E+00
  0.00000000E+00  0.00000000E+00  0.00000000E+00
  0.00000000E+00  0.00000000E+00  0.00000000E+00
  0.00000000E+00  0.00000000E+00  0.00000000E+00
  0.00000000E+00  0.00000000E+00  0.00000000E+00
  0.00000000E+00  0.00000000E+00  0.00000000E+00
  0.00000000E+00  0.00000000E+00  0.00000000E+00
  0.00000000E+00  0.00000000E+00  0.00000000E+00
  0.00000000E+00  0.00000000E+00  0.00000000E+00
  0.00000000E+00  0.00000000E+00  0.00000000E+00
  0.00000000E+00  0.00000000E+00  0.00000000E+00
  0.00000000E+00  0.00000000E+00  0.00000000E+00
  0.00000000E+00  0.00000000E+00  0.00000000E+00
  0.00000000E+00  0.00000000E+00  0.00000000E+00
  0.00000000E+00  0.00000000E+00  0.00000000E+00
  0.00000000E+00  0.00000000E+00  0.00000000E+00
  0.00000000E+00  0.00000000E+00  0.00000000E+00
  0.00000000E+00  0.00000000E+00  0.00000000E+00
  0.00000000E+00  0.00000000E+00  0.00000000E+00
  0.00000000E+00  0.00000000E+00  0.00000000E+00
  0.00000000E+00  0.00000000E+00  0.00000000E+00
  0.00000000E+00  0.00000000E+00  0.00000000E+00
  0.00000000E+00  0.00000000E+00  0.00000000E+00
  0.00000000E+00  0.00000000E+00  0.00000000E+00
  0.00000000E+00  0.00000000E+00  0.00000000E+00
  0.00000000E+00  0.00000000E+00  0.00000000E+00
  0.00000000E+00  0.00000000E+00  0.00000000E+00
  0.00000000E+00  0.00000000E+00  0.00000000E+00
  0.00000000E+00  0.00000000E+00  0.00000000E+00
  0.00000000E+00  0.00000000E+00  0.00000000E+00
  0.00000000E+00  0.00000000E+00  0.00000000E+00
  0.00000000E+00  0.00000000E+00  0.00000000E+00
  0.00000000E+00  0.00000000E+00  0.00000000E+00
  0.00000000E+00  0.00000000E+00  0.00000000E+00
  0.00000000E+00  0.00000000E+00  0.00000000E+00
  0.00000000E+00  0.00000000E+00  0.00000000E+00
  0.00000000E+00  0.00000000E+00  0.00000000E+00
  0.00000000E+00  0.00000000E+00  0.00000000E+00
  0.00000000E+00  0.00000000E+00  0.00000000E+00
  0.00000000E+00  0.00000000E+00  0.00000000E+00
  0.00000000E+00  0.00000000E+00  0.00000000E+00
  0.00000000E+00  0.00000000E+00  0.00000000E+00
  0.00000000E+00  0.00000000E+00  0.00000000E+00
  0.00000000E+00  0.00000000E+00  0.00000000E+00
  0.00000000E+00  0.00000000E+00  0.00000000E+00
  0.00000000E+00  0.00000000E+00  0.00000000E+00
  0.00000000E+00  0.00000000E+00  0.00000000E+00
  0.00000000E+00  0.00000000E+00  0.00000000E+00
  0.00000000E+00  0.00000000E+00  0.00000000E+00
  0.00000000E+00  0.00000000E+00  0.00000000E+00
  0.00000000E+00  0.00000000E+00  0.00000000E+00
