Sn24 O49                                
   1.00000000000000     
     6.4768679999999996    0.0000000000000000    0.0000000000000000
     0.0000000000000000    9.6441199999999991    0.0000000000000000
     0.0000000000000000    0.0000000000000000   28.9323580000000007
   Sn   O 
    24    49
Selective dynamics
Direct
  0.2500000000000000  0.2500000000000000  0.2916669999999968   F   F   F
  0.2500000000000000  0.7500000000000000  0.2916669999999968   F   F   F
  0.7500000000000000  0.2500000000000000  0.2916669999999968   F   F   F
  0.7500000000000000  0.7500000000000000  0.2916669999999968   F   F   F
  0.0000000000000000  0.0000000000000000  0.3750000000000000   F   F   F
  0.0000000000000000  0.5000000000000000  0.3750000000000000   F   F   F
  0.5000000000000000  0.0000000000000000  0.3750000000000000   F   F   F
  0.5000000000000000  0.5000000000000000  0.3750000000000000   F   F   F
  0.2500000000000000  0.2500000000000000  0.4583330000000032   F   F   F
  0.2500000000000000  0.7500000000000000  0.4583330000000032   F   F   F
  0.7500000000000000  0.2500000000000000  0.4583330000000032   F   F   F
  0.7500000000000000  0.7500000000000000  0.4583330000000032   F   F   F
  0.0000000000000000 -0.0009966382404532  0.5436268949839996   T   T   T
  0.0000000000000000  0.4982664648445209  0.5432103611211218   T   T   T
  0.5000000000000000 -0.0009316892401711  0.5434281992881080   T   T   T
  0.5000000000000000  0.4982847889583145  0.5435626046445751   T   T   T
  0.2504052502676133  0.2485183207531589  0.6290748767666589   T   T   T
  0.2489146649449907  0.7478291094664784  0.6284432597146049   T   T   T
  0.7495947497323868  0.2485183207531589  0.6290748767666589   T   T   T
  0.7510853350550093  0.7478291094664784  0.6284432597146049   T   T   T
  0.0000000000000000 -0.0042059766414260  0.7148003873472799   T   T   T
  0.0000000000000000  0.4921192917423036  0.7152374474365780   T   T   T
  0.5000000000000000 -0.0109732326684784  0.7130527422907058   T   T   T
  0.5000000000000000  0.4931769946253108  0.7147809627458901   T   T   T
  0.2500000000000000  0.0967800000000025  0.3427399999999992   F   F   F
  0.2500000000000000  0.5967800000000025  0.3427399999999992   F   F   F
  0.7500000000000000  0.0967800000000025  0.3427399999999992   F   F   F
  0.7500000000000000  0.5967800000000025  0.3427399999999992   F   F   F
  0.2500000000000000  0.4032199999999975  0.4072600000000008   F   F   F
  0.2500000000000000  0.9032199999999975  0.4072600000000008   F   F   F
  0.7500000000000000  0.4032199999999975  0.4072600000000008   F   F   F
  0.7500000000000000  0.9032199999999975  0.4072600000000008   F   F   F
  0.0000000000000000  0.1532199999999975  0.2594070000000031   F   F   F
  0.0000000000000000  0.6532199999999975  0.2594070000000031   F   F   F
  0.5000000000000000  0.1532199999999975  0.2594070000000031   F   F   F
  0.5000000000000000  0.6532199999999975  0.2594070000000031   F   F   F
  0.0000000000000000  0.3467800000000025  0.3239269999999976   F   F   F
  0.0000000000000000  0.8467800000000025  0.3239269999999976   F   F   F
  0.5000000000000000  0.3467800000000025  0.3239269999999976   F   F   F
  0.5000000000000000  0.8467800000000025  0.3239269999999976   F   F   F
  0.2497230771232358  0.0982286920736447  0.5112549633012821   T   T   T
  0.2502816459547181  0.5963578935331881  0.5107748878113346   T   T   T
  0.7502769228767644  0.0982286920736447  0.5112549633012821   T   T   T
  0.7497183540452821  0.5963578935331881  0.5107748878113346   T   T   T
  0.2494102198251750  0.3993259971879625  0.5759169211304994   T   T   T
  0.2501348314743252  0.8995518073272823  0.5755591934199614   T   T   T
  0.7505897801748248  0.3993259971879625  0.5759169211304994   T   T   T
  0.7498651685256745  0.8995518073272823  0.5755591934199614   T   T   T
  0.0000000000000000  0.1532199999999975  0.4260730000000024   F   F   F
  0.0000000000000000  0.6532199999999975  0.4260730000000024   F   F   F
  0.5000000000000000  0.1532199999999975  0.4260730000000024   F   F   F
  0.5000000000000000  0.6532199999999975  0.4260730000000024   F   F   F
  0.0000000000000000  0.3467800000000025  0.4905929999999969   F   F   F
  0.0000000000000000  0.8467800000000025  0.4905929999999969   F   F   F
  0.5000000000000000  0.3467800000000025  0.4905929999999969   F   F   F
  0.5000000000000000  0.8467800000000025  0.4905929999999969   F   F   F
  0.2540752247045833  0.1076130325311021  0.6844373442041782   T   T   T
  0.2490732505261476  0.6097777598393772  0.6841812932179474   T   T   T
  0.7459247752954165  0.1076130325311021  0.6844373442041782   T   T   T
  0.7509267494738524  0.6097777598393772  0.6841812932179474   T   T   T
  0.2508432953453664  0.4319212770288328  0.7524194960402383   T   T   T
  0.2539413261948464  0.9147558860753620  0.7499458469112879   T   T   T
  0.7491567046546337  0.4319212770288328  0.7524194960402383   T   T   T
  0.7460586738051538  0.9147558860753620  0.7499458469112879   T   T   T
  0.0000000000000000  0.1493183489668930  0.5970714366742879   T   T   T
  0.0000000000000000  0.6486499685815853  0.5963501518300186   T   T   T
  0.5000000000000000  0.1490989668262273  0.5968665302726591   T   T   T
  0.5000000000000000  0.6487419953899244  0.5964967999796178   T   T   T
  0.0000000000000000  0.3478057799577479  0.6617471446470125   T   T   T
  0.0000000000000000  0.8534781320861602  0.6596887825028334   T   T   T
  0.5000000000000000  0.3519164665345959  0.6604376494216393   T   T   T
  0.5000000000000000  0.8501367444465434  0.6592724664706517   T   T   T
  0.0000000000000000  0.1029644029584084  0.7789760697737796   T   T   T
 
  0.00000000E+00  0.00000000E+00  0.00000000E+00
  0.00000000E+00  0.00000000E+00  0.00000000E+00
  0.00000000E+00  0.00000000E+00  0.00000000E+00
  0.00000000E+00  0.00000000E+00  0.00000000E+00
  0.00000000E+00  0.00000000E+00  0.00000000E+00
  0.00000000E+00  0.00000000E+00  0.00000000E+00
  0.00000000E+00  0.00000000E+00  0.00000000E+00
  0.00000000E+00  0.00000000E+00  0.00000000E+00
  0.00000000E+00  0.00000000E+00  0.00000000E+00
  0.00000000E+00  0.00000000E+00  0.00000000E+00
  0.00000000E+00  0.00000000E+00  0.00000000E+00
  0.00000000E+00  0.00000000E+00  0.00000000E+00
  0.00000000E+00  0.00000000E+00  0.00000000E+00
  0.00000000E+00  0.00000000E+00  0.00000000E+00
  0.00000000E+00  0.00000000E+00  0.00000000E+00
  0.00000000E+00  0.00000000E+00  0.00000000E+00
  0.00000000E+00  0.00000000E+00  0.00000000E+00
  0.00000000E+00  0.00000000E+00  0.00000000E+00
  0.00000000E+00  0.00000000E+00  0.00000000E+00
  0.00000000E+00  0.00000000E+00  0.00000000E+00
  0.00000000E+00  0.00000000E+00  0.00000000E+00
  0.00000000E+00  0.00000000E+00  0.00000000E+00
  0.00000000E+00  0.00000000E+00  0.00000000E+00
  0.00000000E+00  0.00000000E+00  0.00000000E+00
  0.00000000E+00  0.00000000E+00  0.00000000E+00
  0.00000000E+00  0.00000000E+00  0.00000000E+00
  0.00000000E+00  0.00000000E+00  0.00000000E+00
  0.00000000E+00  0.00000000E+00  0.00000000E+00
  0.00000000E+00  0.00000000E+00  0.00000000E+00
  0.00000000E+00  0.00000000E+00  0.00000000E+00
  0.00000000E+00  0.00000000E+00  0.00000000E+00
  0.00000000E+00  0.00000000E+00  0.00000000E+00
  0.00000000E+00  0.00000000E+00  0.00000000E+00
  0.00000000E+00  0.00000000E+00  0.00000000E+00
  0.00000000E+00  0.00000000E+00  0.00000000E+00
  0.00000000E+00  0.00000000E+00  0.00000000E+00
  0.00000000E+00  0.00000000E+00  0.00000000E+00
  0.00000000E+00  0.00000000E+00  0.00000000E+00
  0.00000000E+00  0.00000000E+00  0.00000000E+00
  0.00000000E+00  0.00000000E+00  0.00000000E+00
  0.00000000E+00  0.00000000E+00  0.00000000E+00
  0.00000000E+00  0.00000000E+00  0.00000000E+00
  0.00000000E+00  0.00000000E+00  0.00000000E+00
  0.00000000E+00  0.00000000E+00  0.00000000E+00
  0.00000000E+00  0.00000000E+00  0.00000000E+00
  0.00000000E+00  0.00000000E+00  0.00000000E+00
  0.00000000E+00  0.00000000E+00  0.00000000E+00
  0.00000000E+00  0.00000000E+00  0.00000000E+00
  0.00000000E+00  0.00000000E+00  0.00000000E+00
  0.00000000E+00  0.00000000E+00  0.00000000E+00
  0.00000000E+00  0.00000000E+00  0.00000000E+00
  0.00000000E+00  0.00000000E+00  0.00000000E+00
  0.00000000E+00  0.00000000E+00  0.00000000E+00
  0.00000000E+00  0.00000000E+00  0.00000000E+00
  0.00000000E+00  0.00000000E+00  0.00000000E+00
  0.00000000E+00  0.00000000E+00  0.00000000E+00
  0.00000000E+00  0.00000000E+00  0.00000000E+00
  0.00000000E+00  0.00000000E+00  0.00000000E+00
  0.00000000E+00  0.00000000E+00  0.00000000E+00
  0.00000000E+00  0.00000000E+00  0.00000000E+00
  0.00000000E+00  0.00000000E+00  0.00000000E+00
  0.00000000E+00  0.00000000E+00  0.00000000E+00
  0.00000000E+00  0.00000000E+00  0.00000000E+00
  0.00000000E+00  0.00000000E+00  0.00000000E+00
  0.00000000E+00  0.00000000E+00  0.00000000E+00
  0.00000000E+00  0.00000000E+00  0.00000000E+00
  0.00000000E+00  0.00000000E+00  0.00000000E+00
  0.00000000E+00  0.00000000E+00  0.00000000E+00
  0.00000000E+00  0.00000000E+00  0.00000000E+00
  0.00000000E+00  0.00000000E+00  0.00000000E+00
  0.00000000E+00  0.00000000E+00  0.00000000E+00
  0.00000000E+00  0.00000000E+00  0.00000000E+00
  0.00000000E+00  0.00000000E+00  0.00000000E+00
