Sn16 H1 O33                             
   1.00000000000000     
     6.4768679999999996    0.0000000000000000    0.0000000000000000
     0.0000000000000000    6.8194220000000003    0.0000000000000000
     0.0000000000000000    0.0000000000000000   27.2776880000000013
   Sn   H    O 
    16     1    33
Selective dynamics
Direct
  0.2500000000000000  0.5000000000000000  0.4375000000000000   F   F   F
  0.7500000000000000  0.5000000000000000  0.4375000000000000   F   F   F
  0.2500000000000000  0.0000000000000000  0.3125000000000000   F   F   F
  0.7500000000000000  0.0000000000000000  0.3125000000000000   F   F   F
  0.0000000000000000  0.5000000000000000  0.3125000000000000   F   F   F
  0.5000000000000000  0.5000000000000000  0.3125000000000000   F   F   F
  0.0000000000000000  0.0000000000000000  0.4375000000000000   F   F   F
  0.5000000000000000  0.0000000000000000  0.4375000000000000   F   F   F
  0.2504037837388734  0.4984756694421439  0.6942297202975016   T   T   T
  0.7453120967767333  0.4991407770507302  0.6939088640029514   T   T   T
  0.2461832501490719  0.0003682274467077  0.5629518089378500   T   T   T
  0.7520685226764381  0.0000015150598621  0.5627268551750672   T   T   T
 -0.0008067415240966  0.4999679816451312  0.5652805989302462   T   T   T
  0.4991308498799949  0.5006302830787595  0.5646715490711901   T   T   T
 -0.0013336449814414  0.0009228334701025  0.6943338776409913   T   T   T
  0.4974951279156774 -0.0031005931637550  0.6839910460024906   T   T   T
  0.8958540412150297  0.0649158304064342  0.7840447712785356   T   T   T
  0.2500000000000000  0.8064400000000020  0.4375000000000000   F   F   F
  0.7500000000000000  0.8064400000000020  0.4375000000000000   F   F   F
  0.2500000000000000  0.3064400000000020  0.3125000000000000   F   F   F
  0.7500000000000000  0.3064400000000020  0.3125000000000000   F   F   F
  0.2500000000000000  0.1935599999999980  0.4375000000000000   F   F   F
  0.7500000000000000  0.1935599999999980  0.4375000000000000   F   F   F
  0.2500000000000000  0.6935599999999980  0.3125000000000000   F   F   F
  0.7500000000000000  0.6935599999999980  0.3125000000000000   F   F   F
  0.0000000000000000  0.5000000000000000  0.4858899999999977   F   F   F
  0.5000000000000000  0.5000000000000000  0.4858899999999977   F   F   F
  0.0000000000000000  0.0000000000000000  0.3608899999999977   F   F   F
  0.5000000000000000  0.0000000000000000  0.3608899999999977   F   F   F
  0.0000000000000000  0.5000000000000000  0.3891100000000023   F   F   F
  0.5000000000000000  0.5000000000000000  0.3891100000000023   F   F   F
  0.0000000000000000  0.0000000000000000  0.2641100000000023   F   F   F
  0.5000000000000000  0.0000000000000000  0.2641100000000023   F   F   F
  0.2526083304107175  0.8089139547149713  0.6930438751037027   T   T   T
  0.7427578784523864  0.8090770398976781  0.6931786817159306   T   T   T
  0.2487579111004724  0.3058846338161926  0.5629671565639659   T   T   T
  0.7494459891831565  0.3056327069253789  0.5629110380769964   T   T   T
  0.2560061283921418  0.1887436259972642  0.6911707073006188   T   T   T
  0.7389785270156000  0.1881068905319117  0.6939738632824070   T   T   T
  0.2481997250289398  0.6947947901287939  0.5629911141502293   T   T   T
  0.7499133457879367  0.6943794902448788  0.5627391571965696   T   T   T
 -0.0026159196744454  0.4922308651361338  0.7405506701783590   T   T   T
  0.4979912441796603  0.4988913187918795  0.7402705879427790   T   T   T
 -0.0020215552976017  0.0002317401175351  0.6139432093681055   T   T   T
  0.4995610751258902 -0.0008979969518620  0.6101115955296990   T   T   T
 -0.0019245277918437  0.4995801528017879  0.6422341927627790   T   T   T
  0.4984521310003399  0.5014618086378254  0.6410764698724803   T   T   T
 -0.0002728339718555  0.0004211277903389  0.5142988756303677   T   T   T
  0.4991710209367797  0.0002132579945366  0.5143117812929502   T   T   T
  0.0178865510187152  0.0047117226890398  0.7693719432595403   T   T   T
 
  0.00000000E+00  0.00000000E+00  0.00000000E+00
  0.00000000E+00  0.00000000E+00  0.00000000E+00
  0.00000000E+00  0.00000000E+00  0.00000000E+00
  0.00000000E+00  0.00000000E+00  0.00000000E+00
  0.00000000E+00  0.00000000E+00  0.00000000E+00
  0.00000000E+00  0.00000000E+00  0.00000000E+00
  0.00000000E+00  0.00000000E+00  0.00000000E+00
  0.00000000E+00  0.00000000E+00  0.00000000E+00
  0.00000000E+00  0.00000000E+00  0.00000000E+00
  0.00000000E+00  0.00000000E+00  0.00000000E+00
  0.00000000E+00  0.00000000E+00  0.00000000E+00
  0.00000000E+00  0.00000000E+00  0.00000000E+00
  0.00000000E+00  0.00000000E+00  0.00000000E+00
  0.00000000E+00  0.00000000E+00  0.00000000E+00
  0.00000000E+00  0.00000000E+00  0.00000000E+00
  0.00000000E+00  0.00000000E+00  0.00000000E+00
  0.00000000E+00  0.00000000E+00  0.00000000E+00
  0.00000000E+00  0.00000000E+00  0.00000000E+00
  0.00000000E+00  0.00000000E+00  0.00000000E+00
  0.00000000E+00  0.00000000E+00  0.00000000E+00
  0.00000000E+00  0.00000000E+00  0.00000000E+00
  0.00000000E+00  0.00000000E+00  0.00000000E+00
  0.00000000E+00  0.00000000E+00  0.00000000E+00
  0.00000000E+00  0.00000000E+00  0.00000000E+00
  0.00000000E+00  0.00000000E+00  0.00000000E+00
  0.00000000E+00  0.00000000E+00  0.00000000E+00
  0.00000000E+00  0.00000000E+00  0.00000000E+00
  0.00000000E+00  0.00000000E+00  0.00000000E+00
  0.00000000E+00  0.00000000E+00  0.00000000E+00
  0.00000000E+00  0.00000000E+00  0.00000000E+00
  0.00000000E+00  0.00000000E+00  0.00000000E+00
  0.00000000E+00  0.00000000E+00  0.00000000E+00
  0.00000000E+00  0.00000000E+00  0.00000000E+00
  0.00000000E+00  0.00000000E+00  0.00000000E+00
  0.00000000E+00  0.00000000E+00  0.00000000E+00
  0.00000000E+00  0.00000000E+00  0.00000000E+00
  0.00000000E+00  0.00000000E+00  0.00000000E+00
  0.00000000E+00  0.00000000E+00  0.00000000E+00
  0.00000000E+00  0.00000000E+00  0.00000000E+00
  0.00000000E+00  0.00000000E+00  0.00000000E+00
  0.00000000E+00  0.00000000E+00  0.00000000E+00
  0.00000000E+00  0.00000000E+00  0.00000000E+00
  0.00000000E+00  0.00000000E+00  0.00000000E+00
  0.00000000E+00  0.00000000E+00  0.00000000E+00
  0.00000000E+00  0.00000000E+00  0.00000000E+00
  0.00000000E+00  0.00000000E+00  0.00000000E+00
  0.00000000E+00  0.00000000E+00  0.00000000E+00
  0.00000000E+00  0.00000000E+00  0.00000000E+00
  0.00000000E+00  0.00000000E+00  0.00000000E+00
  0.00000000E+00  0.00000000E+00  0.00000000E+00
