H2 Ir16 O34                             
   1.00000000000000     
     6.3822810800000003    0.0000000000000000    0.0000000000000004
     0.0000000000000010    6.4172767899999998    0.0000000000000004
     0.0000000000000000    0.0000000000000000   32.0863839299999967
   H    Ir   O 
     2    16    34
Selective dynamics
Direct
  0.8710142228412669  0.0200851910743342  0.4224092860411934   T   T   T
  0.3710538376407614  0.0200711054223632  0.4224042462745881   T   T   T
  0.2500000000000000  0.5000000000000000  0.1499999999999986   F   F   F
  0.7500000000000000  0.5000000000000000  0.1499999999999986   F   F   F
  0.2500000000000000  0.0000000000000000  0.0499999999999972   F   F   F
  0.7500000000000000  0.0000000000000000  0.0499999999999972   F   F   F
  0.0000000000000000  0.5000000000000000  0.0499999999999972   F   F   F
  0.5000000000000000  0.5000000000000000  0.0499999999999972   F   F   F
  0.0000000000000000  0.0000000000000000  0.1499999999999986   F   F   F
  0.5000000000000000  0.0000000000000000  0.1499999999999986   F   F   F
  0.2498735857672305  0.5046080316275791  0.3502894444203105   T   T   T
  0.7499501659920109  0.5046194609707776  0.3502934510295037   T   T   T
  0.2498539025023607  0.0000504380515953  0.2499261526139756   T   T   T
  0.7498511594124075  0.0000514913945685  0.2499263949322716   T   T   T
 -0.0000672488420557  0.5003408844029607  0.2501594700408123   T   T   T
  0.4999505280252265  0.5003382945119231  0.2501501643914904   T   T   T
 -0.0004767340801215  0.0048571106480316  0.3502138116350154   T   T   T
  0.4995202056659744  0.0048569991639369  0.3502107646854603   T   T   T
  0.0000000000000000  0.5000000000000000  0.1117544100000032   F   F   F
  0.5000000000000000  0.5000000000000000  0.1117544100000032   F   F   F
  0.0000000000000000  0.0000000000000000  0.0117544100000018   F   F   F
  0.5000000000000000  0.0000000000000000  0.0117544100000018   F   F   F
  0.2500000000000000  0.8087720600000026  0.1499999999999986   F   F   F
  0.7500000000000000  0.8087720600000026  0.1499999999999986   F   F   F
  0.2500000000000000  0.3087720600000026  0.0499999999999972   F   F   F
  0.7500000000000000  0.3087720600000026  0.0499999999999972   F   F   F
  0.0000000000000000  0.5000000000000000  0.1882455900000011   F   F   F
  0.5000000000000000  0.5000000000000000  0.1882455900000011   F   F   F
  0.0000000000000000  0.0000000000000000  0.0882455899999997   F   F   F
  0.5000000000000000  0.0000000000000000  0.0882455899999997   F   F   F
  0.2500000000000000  0.1912279399999974  0.1499999999999986   F   F   F
  0.7500000000000000  0.1912279399999974  0.1499999999999986   F   F   F
  0.2500000000000000  0.6912279399999974  0.0499999999999972   F   F   F
  0.7500000000000000  0.6912279399999974  0.0499999999999972   F   F   F
 -0.0001323773989622  0.5039558756792860  0.3115672597239987   T   T   T
  0.4998482983912384  0.5039536846092026  0.3115672650873633   T   T   T
  0.0001703417495701 -0.0001564392960819  0.2117481577965210   T   T   T
  0.5001682957246041 -0.0001546448872768  0.2117489139761900   T   T   T
  0.2502270821218342  0.8131284013417287  0.3497859751866839   T   T   T
  0.7502138049380704  0.8131324968671169  0.3497855151125385   T   T   T
  0.2499758252930716  0.3088436949654126  0.2500700710555304   T   T   T
  0.7499616208296537  0.3088423142513302  0.2500701640897932   T   T   T
 -0.0001888905828976  0.5047698963402288  0.3867765456006931   T   T   T
  0.4998147854332242  0.5047618770179929  0.3867790711788004   T   T   T
 -0.0003704623048480  0.0000894285269404  0.2880935433713761   T   T   T
  0.4996218077087826  0.0000890930901702  0.2880923033741534   T   T   T
  0.2499054702399642  0.1964568418207632  0.3490633231536673   T   T   T
  0.7498949752764326  0.1964511621932105  0.3490626601049990   T   T   T
  0.2499544249823973  0.6914274144396617  0.2497465394505820   T   T   T
  0.7499402899085352  0.6914281477017330  0.2497464317864810   T   T   T
  0.0131383294191190  0.0118290596551593  0.4106185547472411   T   T   T
  0.5130864858756834  0.0118312717751513  0.4106248416853167   T   T   T
 
  0.00000000E+00  0.00000000E+00  0.00000000E+00
  0.00000000E+00  0.00000000E+00  0.00000000E+00
  0.00000000E+00  0.00000000E+00  0.00000000E+00
  0.00000000E+00  0.00000000E+00  0.00000000E+00
  0.00000000E+00  0.00000000E+00  0.00000000E+00
  0.00000000E+00  0.00000000E+00  0.00000000E+00
  0.00000000E+00  0.00000000E+00  0.00000000E+00
  0.00000000E+00  0.00000000E+00  0.00000000E+00
  0.00000000E+00  0.00000000E+00  0.00000000E+00
  0.00000000E+00  0.00000000E+00  0.00000000E+00
  0.00000000E+00  0.00000000E+00  0.00000000E+00
  0.00000000E+00  0.00000000E+00  0.00000000E+00
  0.00000000E+00  0.00000000E+00  0.00000000E+00
  0.00000000E+00  0.00000000E+00  0.00000000E+00
  0.00000000E+00  0.00000000E+00  0.00000000E+00
  0.00000000E+00  0.00000000E+00  0.00000000E+00
  0.00000000E+00  0.00000000E+00  0.00000000E+00
  0.00000000E+00  0.00000000E+00  0.00000000E+00
  0.00000000E+00  0.00000000E+00  0.00000000E+00
  0.00000000E+00  0.00000000E+00  0.00000000E+00
  0.00000000E+00  0.00000000E+00  0.00000000E+00
  0.00000000E+00  0.00000000E+00  0.00000000E+00
  0.00000000E+00  0.00000000E+00  0.00000000E+00
  0.00000000E+00  0.00000000E+00  0.00000000E+00
  0.00000000E+00  0.00000000E+00  0.00000000E+00
  0.00000000E+00  0.00000000E+00  0.00000000E+00
  0.00000000E+00  0.00000000E+00  0.00000000E+00
  0.00000000E+00  0.00000000E+00  0.00000000E+00
  0.00000000E+00  0.00000000E+00  0.00000000E+00
  0.00000000E+00  0.00000000E+00  0.00000000E+00
  0.00000000E+00  0.00000000E+00  0.00000000E+00
  0.00000000E+00  0.00000000E+00  0.00000000E+00
  0.00000000E+00  0.00000000E+00  0.00000000E+00
  0.00000000E+00  0.00000000E+00  0.00000000E+00
  0.00000000E+00  0.00000000E+00  0.00000000E+00
  0.00000000E+00  0.00000000E+00  0.00000000E+00
  0.00000000E+00  0.00000000E+00  0.00000000E+00
  0.00000000E+00  0.00000000E+00  0.00000000E+00
  0.00000000E+00  0.00000000E+00  0.00000000E+00
  0.00000000E+00  0.00000000E+00  0.00000000E+00
  0.00000000E+00  0.00000000E+00  0.00000000E+00
  0.00000000E+00  0.00000000E+00  0.00000000E+00
  0.00000000E+00  0.00000000E+00  0.00000000E+00
  0.00000000E+00  0.00000000E+00  0.00000000E+00
  0.00000000E+00  0.00000000E+00  0.00000000E+00
  0.00000000E+00  0.00000000E+00  0.00000000E+00
  0.00000000E+00  0.00000000E+00  0.00000000E+00
  0.00000000E+00  0.00000000E+00  0.00000000E+00
  0.00000000E+00  0.00000000E+00  0.00000000E+00
  0.00000000E+00  0.00000000E+00  0.00000000E+00
  0.00000000E+00  0.00000000E+00  0.00000000E+00
  0.00000000E+00  0.00000000E+00  0.00000000E+00
