H1 Ir48 N1 O101                         
   1.00000000000000     
     9.5685210000000005    0.0000000000000000    0.0000000000000006
     0.0000000000000021   12.8550287399999998    0.0000000000000008
     0.0000000000000000    0.0000000000000000   32.1375718700000021
   H    Ir   N    O 
     1    48     1   101
Selective dynamics
Direct
  0.9289583144663714  0.4799670996808542  0.4606074107246041   T   T   T
  0.1666666666666643  0.2500000000000000  0.1499999999999986   F   F   F
  0.1666666666666643  0.7500000000000000  0.1499999999999986   F   F   F
  0.5000000000000000  0.2500000000000000  0.1499999999999986   F   F   F
  0.5000000000000000  0.7500000000000000  0.1499999999999986   F   F   F
  0.8333333333333357  0.2500000000000000  0.1499999999999986   F   F   F
  0.8333333333333357  0.7500000000000000  0.1499999999999986   F   F   F
  0.1666666666666643  0.0000000000000000  0.0499999999999972   F   F   F
  0.1666666666666643  0.5000000000000000  0.0499999999999972   F   F   F
  0.5000000000000000  0.0000000000000000  0.0499999999999972   F   F   F
  0.5000000000000000  0.5000000000000000  0.0499999999999972   F   F   F
  0.8333333333333357  0.0000000000000000  0.0499999999999972   F   F   F
  0.8333333333333357  0.5000000000000000  0.0499999999999972   F   F   F
  0.0000000000000000  0.2500000000000000  0.0499999999999972   F   F   F
  0.0000000000000000  0.7500000000000000  0.0499999999999972   F   F   F
  0.3333333333333357  0.2500000000000000  0.0499999999999972   F   F   F
  0.3333333333333357  0.7500000000000000  0.0499999999999972   F   F   F
  0.6666666666666643  0.2500000000000000  0.0499999999999972   F   F   F
  0.6666666666666643  0.7500000000000000  0.0499999999999972   F   F   F
  0.0000000000000000  0.0000000000000000  0.1499999999999986   F   F   F
  0.0000000000000000  0.5000000000000000  0.1499999999999986   F   F   F
  0.3333333333333357  0.0000000000000000  0.1499999999999986   F   F   F
  0.3333333333333357  0.5000000000000000  0.1499999999999986   F   F   F
  0.6666666666666643  0.0000000000000000  0.1499999999999986   F   F   F
  0.6666666666666643  0.5000000000000000  0.1499999999999986   F   F   F
  0.1666776378388684  0.2498878782177248  0.3501575155110420   T   T   T
  0.1666739664284226  0.7493853380411348  0.3502904743339918   T   T   T
  0.4999086168706580  0.2485747720743653  0.3497385160184273   T   T   T
  0.4999127115193522  0.7507907647696190  0.3497884092787815   T   T   T
  0.8331812974783664  0.2500166400742267  0.3503771823595473   T   T   T
  0.8332472907168564  0.7491826879909973  0.3504550868103161   T   T   T
  0.1667152341039776 -0.0001106897433881  0.2494570935303403   T   T   T
  0.1658626863426477  0.4999761391415485  0.2494756371452092   T   T   T
  0.5000312868385394 -0.0001000159378083  0.2494845971664750   T   T   T
  0.5002709874974907  0.4999418802212076  0.2496838902915823   T   T   T
  0.8332967586572196 -0.0001242179357942  0.2494752275572452   T   T   T
  0.8342589403186198  0.4998609416519530  0.2496158947157121   T   T   T
  0.0000086482366329  0.2497862636421891  0.2501248236832833   T   T   T
 -0.0000208022262283  0.7500044215522820  0.2501736963530964   T   T   T
  0.3332659470338867  0.2499946799644966  0.2500136871261368   T   T   T
  0.3332605446089999  0.7498670937842038  0.2500735494071439   T   T   T
  0.6668135731478053  0.2499500276779598  0.2500801836501241   T   T   T
  0.6668357209061039  0.7498334352599590  0.2501125754729301   T   T   T
  0.9997154234742333 -0.0004453957007908  0.3478056631553361   T   T   T
  0.9996413741227327  0.4994863271999949  0.3502447590480250   T   T   T
  0.3327408604286833 -0.0003555743222861  0.3478870558714967   T   T   T
  0.3369717697434474  0.4996757953245913  0.3482148663068972   T   T   T
  0.6667562348669263 -0.0004341025934653  0.3478795734666347   T   T   T
  0.6615116143497271  0.4995971341523387  0.3490211930843268   T   T   T
  0.4918986413228552  0.5003208616223688  0.4309077763951835   T   T   T
  0.0000000000000000  0.2500000000000000  0.1116707999999988   F   F   F
  0.0000000000000000  0.7500000000000000  0.1116707999999988   F   F   F
  0.3333333333333357  0.2500000000000000  0.1116707999999988   F   F   F
  0.3333333333333357  0.7500000000000000  0.1116707999999988   F   F   F
  0.6666666666666643  0.2500000000000000  0.1116707999999988   F   F   F
  0.6666666666666643  0.7500000000000000  0.1116707999999988   F   F   F
  0.0000000000000000  0.0000000000000000  0.0116707999999974   F   F   F
  0.0000000000000000  0.5000000000000000  0.0116707999999974   F   F   F
  0.3333333333333357  0.0000000000000000  0.0116707999999974   F   F   F
  0.3333333333333357  0.5000000000000000  0.0116707999999974   F   F   F
  0.6666666666666643  0.0000000000000000  0.0116707999999974   F   F   F
  0.6666666666666643  0.5000000000000000  0.0116707999999974   F   F   F
  0.1666666666666643  0.0958230000000029  0.1499999999999986   F   F   F
  0.1666666666666643  0.5958230000000029  0.1499999999999986   F   F   F
  0.5000000000000000  0.0958230000000029  0.1499999999999986   F   F   F
  0.5000000000000000  0.5958230000000029  0.1499999999999986   F   F   F
  0.8333333333333357  0.0958230000000029  0.1499999999999986   F   F   F
  0.8333333333333357  0.5958230000000029  0.1499999999999986   F   F   F
  0.1666666666666643  0.3458230000000029  0.0499999999999972   F   F   F
  0.1666666666666643  0.8458230000000029  0.0499999999999972   F   F   F
  0.5000000000000000  0.3458230000000029  0.0499999999999972   F   F   F
  0.5000000000000000  0.8458230000000029  0.0499999999999972   F   F   F
  0.8333333333333357  0.3458230000000029  0.0499999999999972   F   F   F
  0.8333333333333357  0.8458230000000029  0.0499999999999972   F   F   F
  0.0000000000000000  0.2500000000000000  0.1883291999999983   F   F   F
  0.0000000000000000  0.7500000000000000  0.1883291999999983   F   F   F
  0.3333333333333357  0.2500000000000000  0.1883291999999983   F   F   F
  0.3333333333333357  0.7500000000000000  0.1883291999999983   F   F   F
  0.6666666666666643  0.2500000000000000  0.1883291999999983   F   F   F
  0.6666666666666643  0.7500000000000000  0.1883291999999983   F   F   F
  0.0000000000000000  0.0000000000000000  0.0883291999999969   F   F   F
  0.0000000000000000  0.5000000000000000  0.0883291999999969   F   F   F
  0.3333333333333357  0.0000000000000000  0.0883291999999969   F   F   F
  0.3333333333333357  0.5000000000000000  0.0883291999999969   F   F   F
  0.6666666666666643  0.0000000000000000  0.0883291999999969   F   F   F
  0.6666666666666643  0.5000000000000000  0.0883291999999969   F   F   F
  0.1666666666666643  0.4041769999999971  0.1499999999999986   F   F   F
  0.1666666666666643  0.9041769999999971  0.1499999999999986   F   F   F
  0.5000000000000000  0.4041769999999971  0.1499999999999986   F   F   F
  0.5000000000000000  0.9041769999999971  0.1499999999999986   F   F   F
  0.8333333333333357  0.4041769999999971  0.1499999999999986   F   F   F
  0.8333333333333357  0.9041769999999971  0.1499999999999986   F   F   F
  0.1666666666666643  0.1541769999999971  0.0499999999999972   F   F   F
  0.1666666666666643  0.6541769999999971  0.0499999999999972   F   F   F
  0.5000000000000000  0.1541769999999971  0.0499999999999972   F   F   F
  0.5000000000000000  0.6541769999999971  0.0499999999999972   F   F   F
  0.8333333333333357  0.1541769999999971  0.0499999999999972   F   F   F
  0.8333333333333357  0.6541769999999971  0.0499999999999972   F   F   F
  0.9997769444749010  0.2498371580752889  0.3114570963311775   T   T   T
  0.9998771646330906  0.7494803570892399  0.3115355780717438   T   T   T
  0.3327491281613986  0.2481778931422039  0.3112368076335067   T   T   T
  0.3326647866664664  0.7511908963510444  0.3113167307726573   T   T   T
  0.6673320765593503  0.2484216527927273  0.3113446686970056   T   T   T
  0.6674023658369077  0.7509407440901229  0.3113846968456532   T   T   T
  0.0000106453616044 -0.0002512293006622  0.2111138127428465   T   T   T
  0.9998975222683923  0.4999230873400725  0.2113463631669237   T   T   T
  0.3334224375730726 -0.0003545972812229  0.2110980776163115   T   T   T
  0.3335090979758027  0.4998718748776742  0.2114517096450462   T   T   T
  0.6666079790373125 -0.0002889602193796  0.2111100370860239   T   T   T
  0.6668991574209422  0.4999026078143001  0.2115360796107638   T   T   T
  0.1664095983718432  0.0948579871481218  0.3515251377973278   T   T   T
  0.1688193666807685  0.5953545814243542  0.3495794569950349   T   T   T
  0.4997562322262522  0.0945742446345308  0.3517250576835211   T   T   T
  0.4994497094488685  0.5970158434176106  0.3459307696506074   T   T   T
  0.8332480983423418  0.0949056403378455  0.3515716845349781   T   T   T
  0.8314680994824364  0.5946779618805857  0.3509419857902071   T   T   T
  0.1664182403648604  0.3454935744060101  0.2495899597903984   T   T   T
  0.1665337531065942  0.8453987921797345  0.2501828027690357   T   T   T
  0.5001362706575424  0.3456001591542658  0.2496661591665670   T   T   T
  0.5001625863022605  0.8453459662668481  0.2502426816920315   T   T   T
  0.8336066971851687  0.3454271493388513  0.2497111001794949   T   T   T
  0.8333339473719106  0.8454818033567338  0.2502843117695970   T   T   T
  0.0002392723223864  0.2480969234706000  0.3868939145298048   T   T   T
  0.0002088668090700  0.7514181636175910  0.3869793206657395   T   T   T
  0.3338282821366894  0.2494788654905253  0.3866327884476694   T   T   T
  0.3339215273233523  0.7501073588247630  0.3867098816755941   T   T   T
  0.6656486009327923  0.2493127208329185  0.3867551260195488   T   T   T
  0.6656724042614137  0.7503179471082553  0.3867910332618902   T   T   T
  0.0000560215727071  0.0014994375394463  0.2874455162834368   T   T   T
 -0.0001906015900805  0.5003525328537083  0.2882249559003822   T   T   T
  0.3333674418782407  0.9993640926377483  0.2874136015906326   T   T   T
  0.3306803876968440  0.5000473088713859  0.2871186466919808   T   T   T
  0.6666232166377570  0.0022835634466512  0.2874235354191268   T   T   T
  0.6699828316802083  0.4999020734841449  0.2875836191404768   T   T   T
  0.1688637534125358  0.4038833857081865  0.3489501592435692   T   T   T
  0.1662950152192401  0.9044188547367460  0.3515265470582605   T   T   T
  0.4994224850588720  0.4023382912578616  0.3457871460745726   T   T   T
  0.4998183459503052  0.9047977945557216  0.3517309622685060   T   T   T
  0.8311541464260863  0.4041984484344588  0.3505966958077236   T   T   T
  0.8331735690102783  0.9044478922886449  0.3516241726677092   T   T   T
  0.1667428967684091  0.1544302964789212  0.2500643624990323   T   T   T
  0.1664712091767132  0.6544087749374090  0.2495284446959057   T   T   T
  0.4999332566565898  0.1545294562061799  0.2500631465778459   T   T   T
  0.5001293160983511  0.6542616763901871  0.2496324012417099   T   T   T
  0.8333892309191403  0.1544272442483506  0.2500184779857533   T   T   T
  0.8336116541833191  0.6543534644368334  0.2497054655258260   T   T   T
  0.3691992983984598  0.4997072956585193  0.4117624465050967   T   T   T
  0.4899920261390591  0.5011390138077968  0.4687849725709906   T   T   T
  0.6156473766254658  0.4997702463077757  0.4127259138618296   T   T   T
  0.0198794169732346  0.4969153955802577  0.4097966795611232   T   T   T
  0.8923169966039242  0.4868010962418297  0.4321106851329005   T   T   T
 
  0.00000000E+00  0.00000000E+00  0.00000000E+00
  0.00000000E+00  0.00000000E+00  0.00000000E+00
  0.00000000E+00  0.00000000E+00  0.00000000E+00
  0.00000000E+00  0.00000000E+00  0.00000000E+00
  0.00000000E+00  0.00000000E+00  0.00000000E+00
  0.00000000E+00  0.00000000E+00  0.00000000E+00
  0.00000000E+00  0.00000000E+00  0.00000000E+00
  0.00000000E+00  0.00000000E+00  0.00000000E+00
  0.00000000E+00  0.00000000E+00  0.00000000E+00
  0.00000000E+00  0.00000000E+00  0.00000000E+00
  0.00000000E+00  0.00000000E+00  0.00000000E+00
  0.00000000E+00  0.00000000E+00  0.00000000E+00
  0.00000000E+00  0.00000000E+00  0.00000000E+00
  0.00000000E+00  0.00000000E+00  0.00000000E+00
  0.00000000E+00  0.00000000E+00  0.00000000E+00
  0.00000000E+00  0.00000000E+00  0.00000000E+00
  0.00000000E+00  0.00000000E+00  0.00000000E+00
  0.00000000E+00  0.00000000E+00  0.00000000E+00
  0.00000000E+00  0.00000000E+00  0.00000000E+00
  0.00000000E+00  0.00000000E+00  0.00000000E+00
  0.00000000E+00  0.00000000E+00  0.00000000E+00
  0.00000000E+00  0.00000000E+00  0.00000000E+00
  0.00000000E+00  0.00000000E+00  0.00000000E+00
  0.00000000E+00  0.00000000E+00  0.00000000E+00
  0.00000000E+00  0.00000000E+00  0.00000000E+00
  0.00000000E+00  0.00000000E+00  0.00000000E+00
  0.00000000E+00  0.00000000E+00  0.00000000E+00
  0.00000000E+00  0.00000000E+00  0.00000000E+00
  0.00000000E+00  0.00000000E+00  0.00000000E+00
  0.00000000E+00  0.00000000E+00  0.00000000E+00
  0.00000000E+00  0.00000000E+00  0.00000000E+00
  0.00000000E+00  0.00000000E+00  0.00000000E+00
  0.00000000E+00  0.00000000E+00  0.00000000E+00
  0.00000000E+00  0.00000000E+00  0.00000000E+00
  0.00000000E+00  0.00000000E+00  0.00000000E+00
  0.00000000E+00  0.00000000E+00  0.00000000E+00
  0.00000000E+00  0.00000000E+00  0.00000000E+00
  0.00000000E+00  0.00000000E+00  0.00000000E+00
  0.00000000E+00  0.00000000E+00  0.00000000E+00
  0.00000000E+00  0.00000000E+00  0.00000000E+00
  0.00000000E+00  0.00000000E+00  0.00000000E+00
  0.00000000E+00  0.00000000E+00  0.00000000E+00
  0.00000000E+00  0.00000000E+00  0.00000000E+00
  0.00000000E+00  0.00000000E+00  0.00000000E+00
  0.00000000E+00  0.00000000E+00  0.00000000E+00
  0.00000000E+00  0.00000000E+00  0.00000000E+00
  0.00000000E+00  0.00000000E+00  0.00000000E+00
  0.00000000E+00  0.00000000E+00  0.00000000E+00
  0.00000000E+00  0.00000000E+00  0.00000000E+00
  0.00000000E+00  0.00000000E+00  0.00000000E+00
  0.00000000E+00  0.00000000E+00  0.00000000E+00
  0.00000000E+00  0.00000000E+00  0.00000000E+00
  0.00000000E+00  0.00000000E+00  0.00000000E+00
  0.00000000E+00  0.00000000E+00  0.00000000E+00
  0.00000000E+00  0.00000000E+00  0.00000000E+00
  0.00000000E+00  0.00000000E+00  0.00000000E+00
  0.00000000E+00  0.00000000E+00  0.00000000E+00
  0.00000000E+00  0.00000000E+00  0.00000000E+00
  0.00000000E+00  0.00000000E+00  0.00000000E+00
  0.00000000E+00  0.00000000E+00  0.00000000E+00
  0.00000000E+00  0.00000000E+00  0.00000000E+00
  0.00000000E+00  0.00000000E+00  0.00000000E+00
  0.00000000E+00  0.00000000E+00  0.00000000E+00
  0.00000000E+00  0.00000000E+00  0.00000000E+00
  0.00000000E+00  0.00000000E+00  0.00000000E+00
  0.00000000E+00  0.00000000E+00  0.00000000E+00
  0.00000000E+00  0.00000000E+00  0.00000000E+00
  0.00000000E+00  0.00000000E+00  0.00000000E+00
  0.00000000E+00  0.00000000E+00  0.00000000E+00
  0.00000000E+00  0.00000000E+00  0.00000000E+00
  0.00000000E+00  0.00000000E+00  0.00000000E+00
  0.00000000E+00  0.00000000E+00  0.00000000E+00
  0.00000000E+00  0.00000000E+00  0.00000000E+00
  0.00000000E+00  0.00000000E+00  0.00000000E+00
  0.00000000E+00  0.00000000E+00  0.00000000E+00
  0.00000000E+00  0.00000000E+00  0.00000000E+00
  0.00000000E+00  0.00000000E+00  0.00000000E+00
  0.00000000E+00  0.00000000E+00  0.00000000E+00
  0.00000000E+00  0.00000000E+00  0.00000000E+00
  0.00000000E+00  0.00000000E+00  0.00000000E+00
  0.00000000E+00  0.00000000E+00  0.00000000E+00
  0.00000000E+00  0.00000000E+00  0.00000000E+00
  0.00000000E+00  0.00000000E+00  0.00000000E+00
  0.00000000E+00  0.00000000E+00  0.00000000E+00
  0.00000000E+00  0.00000000E+00  0.00000000E+00
  0.00000000E+00  0.00000000E+00  0.00000000E+00
  0.00000000E+00  0.00000000E+00  0.00000000E+00
  0.00000000E+00  0.00000000E+00  0.00000000E+00
  0.00000000E+00  0.00000000E+00  0.00000000E+00
  0.00000000E+00  0.00000000E+00  0.00000000E+00
  0.00000000E+00  0.00000000E+00  0.00000000E+00
  0.00000000E+00  0.00000000E+00  0.00000000E+00
  0.00000000E+00  0.00000000E+00  0.00000000E+00
  0.00000000E+00  0.00000000E+00  0.00000000E+00
  0.00000000E+00  0.00000000E+00  0.00000000E+00
  0.00000000E+00  0.00000000E+00  0.00000000E+00
  0.00000000E+00  0.00000000E+00  0.00000000E+00
  0.00000000E+00  0.00000000E+00  0.00000000E+00
  0.00000000E+00  0.00000000E+00  0.00000000E+00
  0.00000000E+00  0.00000000E+00  0.00000000E+00
  0.00000000E+00  0.00000000E+00  0.00000000E+00
  0.00000000E+00  0.00000000E+00  0.00000000E+00
  0.00000000E+00  0.00000000E+00  0.00000000E+00
  0.00000000E+00  0.00000000E+00  0.00000000E+00
  0.00000000E+00  0.00000000E+00  0.00000000E+00
  0.00000000E+00  0.00000000E+00  0.00000000E+00
  0.00000000E+00  0.00000000E+00  0.00000000E+00
  0.00000000E+00  0.00000000E+00  0.00000000E+00
  0.00000000E+00  0.00000000E+00  0.00000000E+00
  0.00000000E+00  0.00000000E+00  0.00000000E+00
  0.00000000E+00  0.00000000E+00  0.00000000E+00
  0.00000000E+00  0.00000000E+00  0.00000000E+00
  0.00000000E+00  0.00000000E+00  0.00000000E+00
  0.00000000E+00  0.00000000E+00  0.00000000E+00
  0.00000000E+00  0.00000000E+00  0.00000000E+00
  0.00000000E+00  0.00000000E+00  0.00000000E+00
  0.00000000E+00  0.00000000E+00  0.00000000E+00
  0.00000000E+00  0.00000000E+00  0.00000000E+00
  0.00000000E+00  0.00000000E+00  0.00000000E+00
  0.00000000E+00  0.00000000E+00  0.00000000E+00
  0.00000000E+00  0.00000000E+00  0.00000000E+00
  0.00000000E+00  0.00000000E+00  0.00000000E+00
  0.00000000E+00  0.00000000E+00  0.00000000E+00
  0.00000000E+00  0.00000000E+00  0.00000000E+00
  0.00000000E+00  0.00000000E+00  0.00000000E+00
  0.00000000E+00  0.00000000E+00  0.00000000E+00
  0.00000000E+00  0.00000000E+00  0.00000000E+00
  0.00000000E+00  0.00000000E+00  0.00000000E+00
  0.00000000E+00  0.00000000E+00  0.00000000E+00
  0.00000000E+00  0.00000000E+00  0.00000000E+00
  0.00000000E+00  0.00000000E+00  0.00000000E+00
  0.00000000E+00  0.00000000E+00  0.00000000E+00
  0.00000000E+00  0.00000000E+00  0.00000000E+00
  0.00000000E+00  0.00000000E+00  0.00000000E+00
  0.00000000E+00  0.00000000E+00  0.00000000E+00
  0.00000000E+00  0.00000000E+00  0.00000000E+00
  0.00000000E+00  0.00000000E+00  0.00000000E+00
  0.00000000E+00  0.00000000E+00  0.00000000E+00
  0.00000000E+00  0.00000000E+00  0.00000000E+00
  0.00000000E+00  0.00000000E+00  0.00000000E+00
  0.00000000E+00  0.00000000E+00  0.00000000E+00
  0.00000000E+00  0.00000000E+00  0.00000000E+00
  0.00000000E+00  0.00000000E+00  0.00000000E+00
  0.00000000E+00  0.00000000E+00  0.00000000E+00
  0.00000000E+00  0.00000000E+00  0.00000000E+00
  0.00000000E+00  0.00000000E+00  0.00000000E+00
  0.00000000E+00  0.00000000E+00  0.00000000E+00
  0.00000000E+00  0.00000000E+00  0.00000000E+00
  0.00000000E+00  0.00000000E+00  0.00000000E+00
  0.00000000E+00  0.00000000E+00  0.00000000E+00
  0.00000000E+00  0.00000000E+00  0.00000000E+00
