Ir48 S1 O100                            
   1.00000000000000     
     9.5685210000000005    0.0000000000000000    0.0000000000000006
     0.0000000000000021   12.8550287399999998    0.0000000000000008
     0.0000000000000000    0.0000000000000000   32.1375718700000021
   Ir   S    O 
    48     1   100
Selective dynamics
Direct
  0.1666666666666643  0.2500000000000000  0.1499999999999986   F   F   F
  0.1666666666666643  0.7500000000000000  0.1499999999999986   F   F   F
  0.5000000000000000  0.2500000000000000  0.1499999999999986   F   F   F
  0.5000000000000000  0.7500000000000000  0.1499999999999986   F   F   F
  0.8333333333333357  0.2500000000000000  0.1499999999999986   F   F   F
  0.8333333333333357  0.7500000000000000  0.1499999999999986   F   F   F
  0.1666666666666643  0.0000000000000000  0.0499999999999972   F   F   F
  0.1666666666666643  0.5000000000000000  0.0499999999999972   F   F   F
  0.5000000000000000  0.0000000000000000  0.0499999999999972   F   F   F
  0.5000000000000000  0.5000000000000000  0.0499999999999972   F   F   F
  0.8333333333333357  0.0000000000000000  0.0499999999999972   F   F   F
  0.8333333333333357  0.5000000000000000  0.0499999999999972   F   F   F
  0.0000000000000000  0.2500000000000000  0.0499999999999972   F   F   F
  0.0000000000000000  0.7500000000000000  0.0499999999999972   F   F   F
  0.3333333333333357  0.2500000000000000  0.0499999999999972   F   F   F
  0.3333333333333357  0.7500000000000000  0.0499999999999972   F   F   F
  0.6666666666666643  0.2500000000000000  0.0499999999999972   F   F   F
  0.6666666666666643  0.7500000000000000  0.0499999999999972   F   F   F
  0.0000000000000000  0.0000000000000000  0.1499999999999986   F   F   F
  0.0000000000000000  0.5000000000000000  0.1499999999999986   F   F   F
  0.3333333333333357  0.0000000000000000  0.1499999999999986   F   F   F
  0.3333333333333357  0.5000000000000000  0.1499999999999986   F   F   F
  0.6666666666666643  0.0000000000000000  0.1499999999999986   F   F   F
  0.6666666666666643  0.5000000000000000  0.1499999999999986   F   F   F
  0.1672847072088619  0.2503260105131658  0.3505896768169340   T   T   T
  0.1673221516707731  0.7496929827659842  0.3506048611279108   T   T   T
  0.5006181514938144  0.2490371322873577  0.3499758869502843   T   T   T
  0.5006252423473015  0.7510241623745681  0.3501495121467195   T   T   T
  0.8339751353051080  0.2503248730405621  0.3505998036951645   T   T   T
  0.8339463637284993  0.7496850869260051  0.3506195460220852   T   T   T
  0.1668916354297604  0.0001167023735018  0.2494112816394043   T   T   T
  0.1678734245678009  0.5001415259619993  0.2494540070660639   T   T   T
  0.5002604080935277  0.0001457310165956  0.2494736634030899   T   T   T
  0.5002820141538062  0.5003203494494259  0.2500261614180876   T   T   T
  0.8336452937743108  0.0001146224845402  0.2494086107244849   T   T   T
  0.8326665200196809  0.5001369352092522  0.2494550673771640   T   T   T
  0.0002751708302522  0.2502948774552707  0.2502667307327609   T   T   T
  0.0002758871221433  0.7499510319185327  0.2502329351265845   T   T   T
  0.3335792076706249  0.2500207926894749  0.2501715465571374   T   T   T
  0.3335605273051555  0.7502815531281180  0.2501848388715335   T   T   T
  0.6669701160569971  0.2500038553921941  0.2501728041247879   T   T   T
  0.6670063464870560  0.7502895203558764  0.2501897957988473   T   T   T
  0.0008167567892438  0.0000619908636379  0.3476428454609354   T   T   T
  0.0004864025879251  0.4999743084320212  0.3477224284227959   T   T   T
  0.3339056635517674  0.0000339246741101  0.3478350047672281   T   T   T
  0.3364595855149924  0.4998297502848185  0.3493701059967256   T   T   T
  0.6677235884661635  0.0000375853883161  0.3478286653363915   T   T   T
  0.6644379261879396  0.4998208602260207  0.3494238637711298   T   T   T
  0.4999961450906644  0.5061157349116645  0.4382001613466239   T   T   T
  0.0000000000000000  0.2500000000000000  0.1116707999999988   F   F   F
  0.0000000000000000  0.7500000000000000  0.1116707999999988   F   F   F
  0.3333333333333357  0.2500000000000000  0.1116707999999988   F   F   F
  0.3333333333333357  0.7500000000000000  0.1116707999999988   F   F   F
  0.6666666666666643  0.2500000000000000  0.1116707999999988   F   F   F
  0.6666666666666643  0.7500000000000000  0.1116707999999988   F   F   F
  0.0000000000000000  0.0000000000000000  0.0116707999999974   F   F   F
  0.0000000000000000  0.5000000000000000  0.0116707999999974   F   F   F
  0.3333333333333357  0.0000000000000000  0.0116707999999974   F   F   F
  0.3333333333333357  0.5000000000000000  0.0116707999999974   F   F   F
  0.6666666666666643  0.0000000000000000  0.0116707999999974   F   F   F
  0.6666666666666643  0.5000000000000000  0.0116707999999974   F   F   F
  0.1666666666666643  0.0958230000000029  0.1499999999999986   F   F   F
  0.1666666666666643  0.5958230000000029  0.1499999999999986   F   F   F
  0.5000000000000000  0.0958230000000029  0.1499999999999986   F   F   F
  0.5000000000000000  0.5958230000000029  0.1499999999999986   F   F   F
  0.8333333333333357  0.0958230000000029  0.1499999999999986   F   F   F
  0.8333333333333357  0.5958230000000029  0.1499999999999986   F   F   F
  0.1666666666666643  0.3458230000000029  0.0499999999999972   F   F   F
  0.1666666666666643  0.8458230000000029  0.0499999999999972   F   F   F
  0.5000000000000000  0.3458230000000029  0.0499999999999972   F   F   F
  0.5000000000000000  0.8458230000000029  0.0499999999999972   F   F   F
  0.8333333333333357  0.3458230000000029  0.0499999999999972   F   F   F
  0.8333333333333357  0.8458230000000029  0.0499999999999972   F   F   F
  0.0000000000000000  0.2500000000000000  0.1883291999999983   F   F   F
  0.0000000000000000  0.7500000000000000  0.1883291999999983   F   F   F
  0.3333333333333357  0.2500000000000000  0.1883291999999983   F   F   F
  0.3333333333333357  0.7500000000000000  0.1883291999999983   F   F   F
  0.6666666666666643  0.2500000000000000  0.1883291999999983   F   F   F
  0.6666666666666643  0.7500000000000000  0.1883291999999983   F   F   F
  0.0000000000000000  0.0000000000000000  0.0883291999999969   F   F   F
  0.0000000000000000  0.5000000000000000  0.0883291999999969   F   F   F
  0.3333333333333357  0.0000000000000000  0.0883291999999969   F   F   F
  0.3333333333333357  0.5000000000000000  0.0883291999999969   F   F   F
  0.6666666666666643  0.0000000000000000  0.0883291999999969   F   F   F
  0.6666666666666643  0.5000000000000000  0.0883291999999969   F   F   F
  0.1666666666666643  0.4041769999999971  0.1499999999999986   F   F   F
  0.1666666666666643  0.9041769999999971  0.1499999999999986   F   F   F
  0.5000000000000000  0.4041769999999971  0.1499999999999986   F   F   F
  0.5000000000000000  0.9041769999999971  0.1499999999999986   F   F   F
  0.8333333333333357  0.4041769999999971  0.1499999999999986   F   F   F
  0.8333333333333357  0.9041769999999971  0.1499999999999986   F   F   F
  0.1666666666666643  0.1541769999999971  0.0499999999999972   F   F   F
  0.1666666666666643  0.6541769999999971  0.0499999999999972   F   F   F
  0.5000000000000000  0.1541769999999971  0.0499999999999972   F   F   F
  0.5000000000000000  0.6541769999999971  0.0499999999999972   F   F   F
  0.8333333333333357  0.1541769999999971  0.0499999999999972   F   F   F
  0.8333333333333357  0.6541769999999971  0.0499999999999972   F   F   F
  0.0005627061908311  0.2505073924614442  0.3117421635280950   T   T   T
  0.0005657741251850  0.7493637801505639  0.3117012920080083   T   T   T
  0.3332262270811095  0.2491412089853337  0.3114617500926543   T   T   T
  0.3333777839526749  0.7508207003606006  0.3115220779897953   T   T   T
  0.6679206883710049  0.2490626751253817  0.3114693439977348   T   T   T
  0.6677940060282295  0.7508850212272158  0.3115328858597481   T   T   T
  0.0002277140895634  0.0001677700300139  0.2110680241290810   T   T   T
  0.0002112281063447  0.5000141148483641  0.2113691279382121   T   T   T
  0.3335696231116222  0.0001468079139875  0.2111400293670553   T   T   T
  0.3342444591747739  0.5000257150050327  0.2114751612577030   T   T   T
  0.6668658494052017  0.0001461175753669  0.2111408557317302   T   T   T
  0.6662130904661905  0.5000205956358914  0.2114807842753550   T   T   T
  0.1671812335660261  0.0950758549398699  0.3516441980979633   T   T   T
  0.1674974311154438  0.5947407028662182  0.3515708800071108   T   T   T
  0.5007532232058535  0.0945760382408870  0.3516905340900988   T   T   T
  0.5004916971066562  0.5965837305797205  0.3466691081917105   T   T   T
  0.8343486016914882  0.0950799309137291  0.3516425939221046   T   T   T
  0.8334973346773292  0.5947345501412565  0.3516396907489708   T   T   T
  0.1670253054503566  0.3457275780940459  0.2498754171396993   T   T   T
  0.1667820398395142  0.8456103753555650  0.2501878003578077   T   T   T
  0.5002820332828279  0.3456461250656630  0.2497241578450941   T   T   T
  0.5002757206559758  0.8457167916406866  0.2501742339050904   T   T   T
  0.8335153733872227  0.3457177768507797  0.2498859791360439   T   T   T
  0.8337760736166415  0.8456163794045289  0.2501853785122635   T   T   T
  0.0006751374616556  0.2491908096057852  0.3872101599277647   T   T   T
  0.0006858953616121  0.7508069627622137  0.3871939126458702   T   T   T
  0.3351369423326621  0.2482404800164661  0.3865739377099340   T   T   T
  0.3347756142963775  0.7521599473308030  0.3866681063262560   T   T   T
  0.6661462741262009  0.2482181575997326  0.3865817467913566   T   T   T
  0.6665134409486070  0.7521619870205551  0.3866837805154259   T   T   T
  0.0003196313679251  0.0000807505091677  0.2872397372096452   T   T   T
  0.0002953898360511  0.5007629614075139  0.2871720418819082   T   T   T
  0.3335906087227232  0.9994161914716814  0.2874663528252172   T   T   T
  0.3314981115796222  0.5007264121358758  0.2879130771008650   T   T   T
  0.6670265402663826  0.9994315896495910  0.2874580761725495   T   T   T
  0.6691994702496298  0.5007406495457963  0.2879290577319489   T   T   T
  0.1670943412152066  0.4050861046809061  0.3512276914034181   T   T   T
  0.1670812996916927  0.9050458805817998  0.3517214488817770   T   T   T
  0.5004733303147514  0.4031490153154267  0.3451639253734419   T   T   T
  0.5007570742289008  0.9054551460174953  0.3516966696790329   T   T   T
  0.8339069943955842  0.4050791752913919  0.3512855349941783   T   T   T
  0.8344475812419982  0.9050449085302064  0.3517232980677927   T   T   T
  0.1668738378564082  0.1546258577234789  0.2502072836221282   T   T   T
  0.1670699751774871  0.6545974240914527  0.2498340153315277   T   T   T
  0.5002643189609457  0.1545434588887116  0.2502139669902377   T   T   T
  0.5002868680496363  0.6548209467304271  0.2497326870460292   T   T   T
  0.8336799261655822  0.1546126048918033  0.2502015678546959   T   T   T
  0.8334846459120647  0.6545956914620279  0.2498455793452200   T   T   T
  0.6377286986111058  0.4930906590422555  0.4106114530156175   T   T   T
  0.4996547660575230  0.4195989103028192  0.4663282028489403   T   T   T
  0.5000819151100707  0.6107980376449733  0.4539097987823406   T   T   T
  0.3622256295521072  0.4933884449336498  0.4105374705337918   T   T   T
 
  0.00000000E+00  0.00000000E+00  0.00000000E+00
  0.00000000E+00  0.00000000E+00  0.00000000E+00
  0.00000000E+00  0.00000000E+00  0.00000000E+00
  0.00000000E+00  0.00000000E+00  0.00000000E+00
  0.00000000E+00  0.00000000E+00  0.00000000E+00
  0.00000000E+00  0.00000000E+00  0.00000000E+00
  0.00000000E+00  0.00000000E+00  0.00000000E+00
  0.00000000E+00  0.00000000E+00  0.00000000E+00
  0.00000000E+00  0.00000000E+00  0.00000000E+00
  0.00000000E+00  0.00000000E+00  0.00000000E+00
  0.00000000E+00  0.00000000E+00  0.00000000E+00
  0.00000000E+00  0.00000000E+00  0.00000000E+00
  0.00000000E+00  0.00000000E+00  0.00000000E+00
  0.00000000E+00  0.00000000E+00  0.00000000E+00
  0.00000000E+00  0.00000000E+00  0.00000000E+00
  0.00000000E+00  0.00000000E+00  0.00000000E+00
  0.00000000E+00  0.00000000E+00  0.00000000E+00
  0.00000000E+00  0.00000000E+00  0.00000000E+00
  0.00000000E+00  0.00000000E+00  0.00000000E+00
  0.00000000E+00  0.00000000E+00  0.00000000E+00
  0.00000000E+00  0.00000000E+00  0.00000000E+00
  0.00000000E+00  0.00000000E+00  0.00000000E+00
  0.00000000E+00  0.00000000E+00  0.00000000E+00
  0.00000000E+00  0.00000000E+00  0.00000000E+00
  0.00000000E+00  0.00000000E+00  0.00000000E+00
  0.00000000E+00  0.00000000E+00  0.00000000E+00
  0.00000000E+00  0.00000000E+00  0.00000000E+00
  0.00000000E+00  0.00000000E+00  0.00000000E+00
  0.00000000E+00  0.00000000E+00  0.00000000E+00
  0.00000000E+00  0.00000000E+00  0.00000000E+00
  0.00000000E+00  0.00000000E+00  0.00000000E+00
  0.00000000E+00  0.00000000E+00  0.00000000E+00
  0.00000000E+00  0.00000000E+00  0.00000000E+00
  0.00000000E+00  0.00000000E+00  0.00000000E+00
  0.00000000E+00  0.00000000E+00  0.00000000E+00
  0.00000000E+00  0.00000000E+00  0.00000000E+00
  0.00000000E+00  0.00000000E+00  0.00000000E+00
  0.00000000E+00  0.00000000E+00  0.00000000E+00
  0.00000000E+00  0.00000000E+00  0.00000000E+00
  0.00000000E+00  0.00000000E+00  0.00000000E+00
  0.00000000E+00  0.00000000E+00  0.00000000E+00
  0.00000000E+00  0.00000000E+00  0.00000000E+00
  0.00000000E+00  0.00000000E+00  0.00000000E+00
  0.00000000E+00  0.00000000E+00  0.00000000E+00
  0.00000000E+00  0.00000000E+00  0.00000000E+00
  0.00000000E+00  0.00000000E+00  0.00000000E+00
  0.00000000E+00  0.00000000E+00  0.00000000E+00
  0.00000000E+00  0.00000000E+00  0.00000000E+00
  0.00000000E+00  0.00000000E+00  0.00000000E+00
  0.00000000E+00  0.00000000E+00  0.00000000E+00
  0.00000000E+00  0.00000000E+00  0.00000000E+00
  0.00000000E+00  0.00000000E+00  0.00000000E+00
  0.00000000E+00  0.00000000E+00  0.00000000E+00
  0.00000000E+00  0.00000000E+00  0.00000000E+00
  0.00000000E+00  0.00000000E+00  0.00000000E+00
  0.00000000E+00  0.00000000E+00  0.00000000E+00
  0.00000000E+00  0.00000000E+00  0.00000000E+00
  0.00000000E+00  0.00000000E+00  0.00000000E+00
  0.00000000E+00  0.00000000E+00  0.00000000E+00
  0.00000000E+00  0.00000000E+00  0.00000000E+00
  0.00000000E+00  0.00000000E+00  0.00000000E+00
  0.00000000E+00  0.00000000E+00  0.00000000E+00
  0.00000000E+00  0.00000000E+00  0.00000000E+00
  0.00000000E+00  0.00000000E+00  0.00000000E+00
  0.00000000E+00  0.00000000E+00  0.00000000E+00
  0.00000000E+00  0.00000000E+00  0.00000000E+00
  0.00000000E+00  0.00000000E+00  0.00000000E+00
  0.00000000E+00  0.00000000E+00  0.00000000E+00
  0.00000000E+00  0.00000000E+00  0.00000000E+00
  0.00000000E+00  0.00000000E+00  0.00000000E+00
  0.00000000E+00  0.00000000E+00  0.00000000E+00
  0.00000000E+00  0.00000000E+00  0.00000000E+00
  0.00000000E+00  0.00000000E+00  0.00000000E+00
  0.00000000E+00  0.00000000E+00  0.00000000E+00
  0.00000000E+00  0.00000000E+00  0.00000000E+00
  0.00000000E+00  0.00000000E+00  0.00000000E+00
  0.00000000E+00  0.00000000E+00  0.00000000E+00
  0.00000000E+00  0.00000000E+00  0.00000000E+00
  0.00000000E+00  0.00000000E+00  0.00000000E+00
  0.00000000E+00  0.00000000E+00  0.00000000E+00
  0.00000000E+00  0.00000000E+00  0.00000000E+00
  0.00000000E+00  0.00000000E+00  0.00000000E+00
  0.00000000E+00  0.00000000E+00  0.00000000E+00
  0.00000000E+00  0.00000000E+00  0.00000000E+00
  0.00000000E+00  0.00000000E+00  0.00000000E+00
  0.00000000E+00  0.00000000E+00  0.00000000E+00
  0.00000000E+00  0.00000000E+00  0.00000000E+00
  0.00000000E+00  0.00000000E+00  0.00000000E+00
  0.00000000E+00  0.00000000E+00  0.00000000E+00
  0.00000000E+00  0.00000000E+00  0.00000000E+00
  0.00000000E+00  0.00000000E+00  0.00000000E+00
  0.00000000E+00  0.00000000E+00  0.00000000E+00
  0.00000000E+00  0.00000000E+00  0.00000000E+00
  0.00000000E+00  0.00000000E+00  0.00000000E+00
  0.00000000E+00  0.00000000E+00  0.00000000E+00
  0.00000000E+00  0.00000000E+00  0.00000000E+00
  0.00000000E+00  0.00000000E+00  0.00000000E+00
  0.00000000E+00  0.00000000E+00  0.00000000E+00
  0.00000000E+00  0.00000000E+00  0.00000000E+00
  0.00000000E+00  0.00000000E+00  0.00000000E+00
  0.00000000E+00  0.00000000E+00  0.00000000E+00
  0.00000000E+00  0.00000000E+00  0.00000000E+00
  0.00000000E+00  0.00000000E+00  0.00000000E+00
  0.00000000E+00  0.00000000E+00  0.00000000E+00
  0.00000000E+00  0.00000000E+00  0.00000000E+00
  0.00000000E+00  0.00000000E+00  0.00000000E+00
  0.00000000E+00  0.00000000E+00  0.00000000E+00
  0.00000000E+00  0.00000000E+00  0.00000000E+00
  0.00000000E+00  0.00000000E+00  0.00000000E+00
  0.00000000E+00  0.00000000E+00  0.00000000E+00
  0.00000000E+00  0.00000000E+00  0.00000000E+00
  0.00000000E+00  0.00000000E+00  0.00000000E+00
  0.00000000E+00  0.00000000E+00  0.00000000E+00
  0.00000000E+00  0.00000000E+00  0.00000000E+00
  0.00000000E+00  0.00000000E+00  0.00000000E+00
  0.00000000E+00  0.00000000E+00  0.00000000E+00
  0.00000000E+00  0.00000000E+00  0.00000000E+00
  0.00000000E+00  0.00000000E+00  0.00000000E+00
  0.00000000E+00  0.00000000E+00  0.00000000E+00
  0.00000000E+00  0.00000000E+00  0.00000000E+00
  0.00000000E+00  0.00000000E+00  0.00000000E+00
  0.00000000E+00  0.00000000E+00  0.00000000E+00
  0.00000000E+00  0.00000000E+00  0.00000000E+00
  0.00000000E+00  0.00000000E+00  0.00000000E+00
  0.00000000E+00  0.00000000E+00  0.00000000E+00
  0.00000000E+00  0.00000000E+00  0.00000000E+00
  0.00000000E+00  0.00000000E+00  0.00000000E+00
  0.00000000E+00  0.00000000E+00  0.00000000E+00
  0.00000000E+00  0.00000000E+00  0.00000000E+00
  0.00000000E+00  0.00000000E+00  0.00000000E+00
  0.00000000E+00  0.00000000E+00  0.00000000E+00
  0.00000000E+00  0.00000000E+00  0.00000000E+00
  0.00000000E+00  0.00000000E+00  0.00000000E+00
  0.00000000E+00  0.00000000E+00  0.00000000E+00
  0.00000000E+00  0.00000000E+00  0.00000000E+00
  0.00000000E+00  0.00000000E+00  0.00000000E+00
  0.00000000E+00  0.00000000E+00  0.00000000E+00
  0.00000000E+00  0.00000000E+00  0.00000000E+00
  0.00000000E+00  0.00000000E+00  0.00000000E+00
  0.00000000E+00  0.00000000E+00  0.00000000E+00
  0.00000000E+00  0.00000000E+00  0.00000000E+00
  0.00000000E+00  0.00000000E+00  0.00000000E+00
  0.00000000E+00  0.00000000E+00  0.00000000E+00
  0.00000000E+00  0.00000000E+00  0.00000000E+00
  0.00000000E+00  0.00000000E+00  0.00000000E+00
  0.00000000E+00  0.00000000E+00  0.00000000E+00
  0.00000000E+00  0.00000000E+00  0.00000000E+00
  0.00000000E+00  0.00000000E+00  0.00000000E+00
  0.00000000E+00  0.00000000E+00  0.00000000E+00
