Sn24 O48                                
   1.00000000000000     
     6.4768679999999996    0.0000000000000000    0.0000000000000000
     0.0000000000000000    9.6441199999999991    0.0000000000000000
     0.0000000000000000    0.0000000000000000   28.9323580000000007
   Sn   O 
    24    48
Selective dynamics
Direct
  0.2500000000000000  0.2500000000000000  0.2916669999999968   F   F   F
  0.2500000000000000  0.7500000000000000  0.2916669999999968   F   F   F
  0.7500000000000000  0.2500000000000000  0.2916669999999968   F   F   F
  0.7500000000000000  0.7500000000000000  0.2916669999999968   F   F   F
  0.0000000000000000  0.0000000000000000  0.3750000000000000   F   F   F
  0.0000000000000000  0.5000000000000000  0.3750000000000000   F   F   F
  0.5000000000000000  0.0000000000000000  0.3750000000000000   F   F   F
  0.5000000000000000  0.5000000000000000  0.3750000000000000   F   F   F
  0.2500000000000000  0.2500000000000000  0.4583330000000032   F   F   F
  0.2500000000000000  0.7500000000000000  0.4583330000000032   F   F   F
  0.7500000000000000  0.2500000000000000  0.4583330000000032   F   F   F
  0.7500000000000000  0.7500000000000000  0.4583330000000032   F   F   F
  0.0000000000000000 -0.0012549145849445  0.5431265947817037   T   T   T
  0.0000000000000000  0.4987450854150554  0.5431265947817037   T   T   T
  0.5000000000000000 -0.0012549145849445  0.5431265947817037   T   T   T
  0.5000000000000000  0.4987450854150554  0.5431265947817037   T   T   T
  0.2500000000000000  0.2478786434342364  0.6280670341894353   T   T   T
  0.2500000000000000  0.7478786434342364  0.6280670341894353   T   T   T
  0.7500000000000000  0.2478786434342364  0.6280670341894353   T   T   T
  0.7500000000000000  0.7478786434342364  0.6280670341894353   T   T   T
  0.0000000000000000 -0.0083527149153287  0.7137381701039873   T   T   T
 -0.0000000000000000  0.4916472850846714  0.7137381701039873   T   T   T
  0.5000000000000000 -0.0083527149153287  0.7137381701039873   T   T   T
  0.5000000000000000  0.4916472850846714  0.7137381701039873   T   T   T
  0.2500000000000000  0.0967800000000025  0.3427399999999992   F   F   F
  0.2500000000000000  0.5967800000000025  0.3427399999999992   F   F   F
  0.7500000000000000  0.0967800000000025  0.3427399999999992   F   F   F
  0.7500000000000000  0.5967800000000025  0.3427399999999992   F   F   F
  0.2500000000000000  0.4032199999999975  0.4072600000000008   F   F   F
  0.2500000000000000  0.9032199999999975  0.4072600000000008   F   F   F
  0.7500000000000000  0.4032199999999975  0.4072600000000008   F   F   F
  0.7500000000000000  0.9032199999999975  0.4072600000000008   F   F   F
  0.0000000000000000  0.1532199999999975  0.2594070000000031   F   F   F
  0.0000000000000000  0.6532199999999975  0.2594070000000031   F   F   F
  0.5000000000000000  0.1532199999999975  0.2594070000000031   F   F   F
  0.5000000000000000  0.6532199999999975  0.2594070000000031   F   F   F
  0.0000000000000000  0.3467800000000025  0.3239269999999976   F   F   F
  0.0000000000000000  0.8467800000000025  0.3239269999999976   F   F   F
  0.5000000000000000  0.3467800000000025  0.3239269999999976   F   F   F
  0.5000000000000000  0.8467800000000025  0.3239269999999976   F   F   F
  0.2500000000000000  0.0967935511300898  0.5105437983981403   T   T   T
  0.2500000000000000  0.5967935511300901  0.5105437983981403   T   T   T
  0.7500000000000000  0.0967935511300898  0.5105437983981403   T   T   T
  0.7500000000000000  0.5967935511300901  0.5105437983981403   T   T   T
  0.2500000000000000  0.4000093944303132  0.5754407479905543   T   T   T
  0.2500000000000000  0.9000093944303131  0.5754407479905543   T   T   T
  0.7500000000000000  0.4000093944303132  0.5754407479905543   T   T   T
  0.7500000000000000  0.9000093944303131  0.5754407479905543   T   T   T
  0.0000000000000000  0.1532199999999975  0.4260730000000024   F   F   F
  0.0000000000000000  0.6532199999999975  0.4260730000000024   F   F   F
  0.5000000000000000  0.1532199999999975  0.4260730000000024   F   F   F
  0.5000000000000000  0.6532199999999975  0.4260730000000024   F   F   F
  0.0000000000000000  0.3467800000000025  0.4905929999999969   F   F   F
  0.0000000000000000  0.8467800000000025  0.4905929999999969   F   F   F
  0.5000000000000000  0.3467800000000025  0.4905929999999969   F   F   F
  0.5000000000000000  0.8467800000000025  0.4905929999999969   F   F   F
  0.2500000000000000  0.1088963168656788  0.6834677304488176   T   T   T
  0.2500000000000000  0.6088963168656788  0.6834677304488176   T   T   T
  0.7500000000000000  0.1088963168656788  0.6834677304488176   T   T   T
  0.7500000000000000  0.6088963168656788  0.6834677304488176   T   T   T
  0.2500000000000000  0.4319088216393818  0.7515233820739988   T   T   T
  0.2500000000000000  0.9319088216393814  0.7515233820739988   T   T   T
  0.7500000000000000  0.4319088216393818  0.7515233820739988   T   T   T
  0.7500000000000000  0.9319088216393814  0.7515233820739988   T   T   T
  0.0000000000000000  0.1494088705058303  0.5959576951533097   T   T   T
 -0.0000000000000000  0.6494088705058301  0.5959576951533097   T   T   T
  0.5000000000000000  0.1494088705058303  0.5959576951533097   T   T   T
  0.5000000000000000  0.6494088705058301  0.5959576951533097   T   T   T
 -0.0000000000000000  0.3501277645216524  0.6598033758788341   T   T   T
 -0.0000000000000000  0.8501277645216527  0.6598033758788341   T   T   T
  0.5000000000000000  0.3501277645216524  0.6598033758788341   T   T   T
  0.5000000000000000  0.8501277645216527  0.6598033758788341   T   T   T
 
  0.00000000E+00  0.00000000E+00  0.00000000E+00
  0.00000000E+00  0.00000000E+00  0.00000000E+00
  0.00000000E+00  0.00000000E+00  0.00000000E+00
  0.00000000E+00  0.00000000E+00  0.00000000E+00
  0.00000000E+00  0.00000000E+00  0.00000000E+00
  0.00000000E+00  0.00000000E+00  0.00000000E+00
  0.00000000E+00  0.00000000E+00  0.00000000E+00
  0.00000000E+00  0.00000000E+00  0.00000000E+00
  0.00000000E+00  0.00000000E+00  0.00000000E+00
  0.00000000E+00  0.00000000E+00  0.00000000E+00
  0.00000000E+00  0.00000000E+00  0.00000000E+00
  0.00000000E+00  0.00000000E+00  0.00000000E+00
  0.00000000E+00  0.00000000E+00  0.00000000E+00
  0.00000000E+00  0.00000000E+00  0.00000000E+00
  0.00000000E+00  0.00000000E+00  0.00000000E+00
  0.00000000E+00  0.00000000E+00  0.00000000E+00
  0.00000000E+00  0.00000000E+00  0.00000000E+00
  0.00000000E+00  0.00000000E+00  0.00000000E+00
  0.00000000E+00  0.00000000E+00  0.00000000E+00
  0.00000000E+00  0.00000000E+00  0.00000000E+00
  0.00000000E+00  0.00000000E+00  0.00000000E+00
  0.00000000E+00  0.00000000E+00  0.00000000E+00
  0.00000000E+00  0.00000000E+00  0.00000000E+00
  0.00000000E+00  0.00000000E+00  0.00000000E+00
  0.00000000E+00  0.00000000E+00  0.00000000E+00
  0.00000000E+00  0.00000000E+00  0.00000000E+00
  0.00000000E+00  0.00000000E+00  0.00000000E+00
  0.00000000E+00  0.00000000E+00  0.00000000E+00
  0.00000000E+00  0.00000000E+00  0.00000000E+00
  0.00000000E+00  0.00000000E+00  0.00000000E+00
  0.00000000E+00  0.00000000E+00  0.00000000E+00
  0.00000000E+00  0.00000000E+00  0.00000000E+00
  0.00000000E+00  0.00000000E+00  0.00000000E+00
  0.00000000E+00  0.00000000E+00  0.00000000E+00
  0.00000000E+00  0.00000000E+00  0.00000000E+00
  0.00000000E+00  0.00000000E+00  0.00000000E+00
  0.00000000E+00  0.00000000E+00  0.00000000E+00
  0.00000000E+00  0.00000000E+00  0.00000000E+00
  0.00000000E+00  0.00000000E+00  0.00000000E+00
  0.00000000E+00  0.00000000E+00  0.00000000E+00
  0.00000000E+00  0.00000000E+00  0.00000000E+00
  0.00000000E+00  0.00000000E+00  0.00000000E+00
  0.00000000E+00  0.00000000E+00  0.00000000E+00
  0.00000000E+00  0.00000000E+00  0.00000000E+00
  0.00000000E+00  0.00000000E+00  0.00000000E+00
  0.00000000E+00  0.00000000E+00  0.00000000E+00
  0.00000000E+00  0.00000000E+00  0.00000000E+00
  0.00000000E+00  0.00000000E+00  0.00000000E+00
  0.00000000E+00  0.00000000E+00  0.00000000E+00
  0.00000000E+00  0.00000000E+00  0.00000000E+00
  0.00000000E+00  0.00000000E+00  0.00000000E+00
  0.00000000E+00  0.00000000E+00  0.00000000E+00
  0.00000000E+00  0.00000000E+00  0.00000000E+00
  0.00000000E+00  0.00000000E+00  0.00000000E+00
  0.00000000E+00  0.00000000E+00  0.00000000E+00
  0.00000000E+00  0.00000000E+00  0.00000000E+00
  0.00000000E+00  0.00000000E+00  0.00000000E+00
  0.00000000E+00  0.00000000E+00  0.00000000E+00
  0.00000000E+00  0.00000000E+00  0.00000000E+00
  0.00000000E+00  0.00000000E+00  0.00000000E+00
  0.00000000E+00  0.00000000E+00  0.00000000E+00
  0.00000000E+00  0.00000000E+00  0.00000000E+00
  0.00000000E+00  0.00000000E+00  0.00000000E+00
  0.00000000E+00  0.00000000E+00  0.00000000E+00
  0.00000000E+00  0.00000000E+00  0.00000000E+00
  0.00000000E+00  0.00000000E+00  0.00000000E+00
  0.00000000E+00  0.00000000E+00  0.00000000E+00
  0.00000000E+00  0.00000000E+00  0.00000000E+00
  0.00000000E+00  0.00000000E+00  0.00000000E+00
  0.00000000E+00  0.00000000E+00  0.00000000E+00
  0.00000000E+00  0.00000000E+00  0.00000000E+00
  0.00000000E+00  0.00000000E+00  0.00000000E+00
