Sn24 H1 O48                             
   1.00000000000000     
     6.4768679999999996    0.0000000000000000    0.0000000000000000
     0.0000000000000000    9.6441199999999991    0.0000000000000000
     0.0000000000000000    0.0000000000000000   28.9323580000000007
   Sn   H    O 
    24     1    48
Selective dynamics
Direct
  0.2500000000000000  0.2500000000000000  0.2916669999999968   F   F   F
  0.2500000000000000  0.7500000000000000  0.2916669999999968   F   F   F
  0.7500000000000000  0.2500000000000000  0.2916669999999968   F   F   F
  0.7500000000000000  0.7500000000000000  0.2916669999999968   F   F   F
  0.0000000000000000  0.0000000000000000  0.3750000000000000   F   F   F
  0.0000000000000000  0.5000000000000000  0.3750000000000000   F   F   F
  0.5000000000000000  0.0000000000000000  0.3750000000000000   F   F   F
  0.5000000000000000  0.5000000000000000  0.3750000000000000   F   F   F
  0.2500000000000000  0.2500000000000000  0.4583330000000032   F   F   F
  0.2500000000000000  0.7500000000000000  0.4583330000000032   F   F   F
  0.7500000000000000  0.2500000000000000  0.4583330000000032   F   F   F
  0.7500000000000000  0.7500000000000000  0.4583330000000032   F   F   F
  0.0002853215318280 -0.0027211206910350  0.5430327976425828   T   T   T
  0.0004355276137941  0.4982078828797333  0.5426449308849580   T   T   T
  0.4997146784681720 -0.0027211206910350  0.5430327976425828   T   T   T
  0.4995644723862058  0.4982078828797333  0.5426449308849580   T   T   T
  0.2500000000000000  0.2485364530812787  0.6283381127168485   T   T   T
  0.2500000000000000  0.7453509160745787  0.6281463812602815   T   T   T
  0.7500000000000000  0.2495245675836688  0.6272372601285150   T   T   T
  0.7500000000000000  0.7457624603591357  0.6281254803055953   T   T   T
 -0.0091466815126412 -0.0058365486340954  0.7125757255840767   T   T   T
 -0.0000330392127851  0.4906140145031119  0.7146463011730622   T   T   T
  0.5091466815126413 -0.0058365486340954  0.7125757255840767   T   T   T
  0.5000330392127849  0.4906140145031119  0.7146463011730622   T   T   T
  0.2500000000000000  0.9041307726755582  0.7866936930803166   T   T   T
  0.2500000000000000  0.0967800000000025  0.3427399999999992   F   F   F
  0.2500000000000000  0.5967800000000025  0.3427399999999992   F   F   F
  0.7500000000000000  0.0967800000000025  0.3427399999999992   F   F   F
  0.7500000000000000  0.5967800000000025  0.3427399999999992   F   F   F
  0.2500000000000000  0.4032199999999975  0.4072600000000008   F   F   F
  0.2500000000000000  0.9032199999999975  0.4072600000000008   F   F   F
  0.7500000000000000  0.4032199999999975  0.4072600000000008   F   F   F
  0.7500000000000000  0.9032199999999975  0.4072600000000008   F   F   F
  0.0000000000000000  0.1532199999999975  0.2594070000000031   F   F   F
  0.0000000000000000  0.6532199999999975  0.2594070000000031   F   F   F
  0.5000000000000000  0.1532199999999975  0.2594070000000031   F   F   F
  0.5000000000000000  0.6532199999999975  0.2594070000000031   F   F   F
  0.0000000000000000  0.3467800000000025  0.3239269999999976   F   F   F
  0.0000000000000000  0.8467800000000025  0.3239269999999976   F   F   F
  0.5000000000000000  0.3467800000000025  0.3239269999999976   F   F   F
  0.5000000000000000  0.8467800000000025  0.3239269999999976   F   F   F
  0.2500000000000000  0.0984258065514166  0.5119264473179329   T   T   T
  0.2500000000000000  0.5988103897956643  0.5117153061746084   T   T   T
  0.7500000000000000  0.0991831489675118  0.5123944449465052   T   T   T
  0.7500000000000000  0.5986886115298851  0.5118359690642114   T   T   T
  0.2500000000000000  0.3994564352405290  0.5760228499737573   T   T   T
  0.2500000000000000  0.8985370877681552  0.5763799128376359   T   T   T
  0.7500000000000000  0.4000652199938207  0.5758870841457623   T   T   T
  0.7500000000000000  0.8999529257931002  0.5766631174508783   T   T   T
  0.0000000000000000  0.1532199999999975  0.4260730000000024   F   F   F
  0.0000000000000000  0.6532199999999975  0.4260730000000024   F   F   F
  0.5000000000000000  0.1532199999999975  0.4260730000000024   F   F   F
  0.5000000000000000  0.6532199999999975  0.4260730000000024   F   F   F
  0.0000000000000000  0.3467800000000025  0.4905929999999969   F   F   F
  0.0000000000000000  0.8467800000000025  0.4905929999999969   F   F   F
  0.5000000000000000  0.3467800000000025  0.4905929999999969   F   F   F
  0.5000000000000000  0.8467800000000025  0.4905929999999969   F   F   F
  0.2500000000000000  0.1039371971424874  0.6883224743986406   T   T   T
  0.2500000000000000  0.6082609946473219  0.6845635337320919   T   T   T
  0.7500000000000000  0.1098058036485535  0.6828311355606339   T   T   T
  0.7500000000000000  0.6082399410199971  0.6844966186532142   T   T   T
  0.2500000000000000  0.4310671127887650  0.7529219600932070   T   T   T
  0.2500000000000000  0.9131248411380566  0.7530643166550703   T   T   T
  0.7500000000000000  0.4301972059668307  0.7527669274800709   T   T   T
  0.7500000000000000  0.9371784442956655  0.7541448080204032   T   T   T
  0.0019728167925545  0.1463626121567617  0.5976739793265939   T   T   T
  0.0000044221148012  0.6473488666749001  0.5968635920534214   T   T   T
  0.4980271832074456  0.1463626121567617  0.5976739793265939   T   T   T
  0.4999955778851987  0.6473488666749001  0.5968635920534214   T   T   T
  0.0009958653096386  0.3457930941003487  0.6617530754428643   T   T   T
  0.0004463978277886  0.8467414405651600  0.6618932598209731   T   T   T
  0.4990041346903613  0.3457930941003487  0.6617530754428643   T   T   T
  0.4995536021722115  0.8467414405651600  0.6618932598209731   T   T   T
 
  0.00000000E+00  0.00000000E+00  0.00000000E+00
  0.00000000E+00  0.00000000E+00  0.00000000E+00
  0.00000000E+00  0.00000000E+00  0.00000000E+00
  0.00000000E+00  0.00000000E+00  0.00000000E+00
  0.00000000E+00  0.00000000E+00  0.00000000E+00
  0.00000000E+00  0.00000000E+00  0.00000000E+00
  0.00000000E+00  0.00000000E+00  0.00000000E+00
  0.00000000E+00  0.00000000E+00  0.00000000E+00
  0.00000000E+00  0.00000000E+00  0.00000000E+00
  0.00000000E+00  0.00000000E+00  0.00000000E+00
  0.00000000E+00  0.00000000E+00  0.00000000E+00
  0.00000000E+00  0.00000000E+00  0.00000000E+00
  0.00000000E+00  0.00000000E+00  0.00000000E+00
  0.00000000E+00  0.00000000E+00  0.00000000E+00
  0.00000000E+00  0.00000000E+00  0.00000000E+00
  0.00000000E+00  0.00000000E+00  0.00000000E+00
  0.00000000E+00  0.00000000E+00  0.00000000E+00
  0.00000000E+00  0.00000000E+00  0.00000000E+00
  0.00000000E+00  0.00000000E+00  0.00000000E+00
  0.00000000E+00  0.00000000E+00  0.00000000E+00
  0.00000000E+00  0.00000000E+00  0.00000000E+00
  0.00000000E+00  0.00000000E+00  0.00000000E+00
  0.00000000E+00  0.00000000E+00  0.00000000E+00
  0.00000000E+00  0.00000000E+00  0.00000000E+00
  0.00000000E+00  0.00000000E+00  0.00000000E+00
  0.00000000E+00  0.00000000E+00  0.00000000E+00
  0.00000000E+00  0.00000000E+00  0.00000000E+00
  0.00000000E+00  0.00000000E+00  0.00000000E+00
  0.00000000E+00  0.00000000E+00  0.00000000E+00
  0.00000000E+00  0.00000000E+00  0.00000000E+00
  0.00000000E+00  0.00000000E+00  0.00000000E+00
  0.00000000E+00  0.00000000E+00  0.00000000E+00
  0.00000000E+00  0.00000000E+00  0.00000000E+00
  0.00000000E+00  0.00000000E+00  0.00000000E+00
  0.00000000E+00  0.00000000E+00  0.00000000E+00
  0.00000000E+00  0.00000000E+00  0.00000000E+00
  0.00000000E+00  0.00000000E+00  0.00000000E+00
  0.00000000E+00  0.00000000E+00  0.00000000E+00
  0.00000000E+00  0.00000000E+00  0.00000000E+00
  0.00000000E+00  0.00000000E+00  0.00000000E+00
  0.00000000E+00  0.00000000E+00  0.00000000E+00
  0.00000000E+00  0.00000000E+00  0.00000000E+00
  0.00000000E+00  0.00000000E+00  0.00000000E+00
  0.00000000E+00  0.00000000E+00  0.00000000E+00
  0.00000000E+00  0.00000000E+00  0.00000000E+00
  0.00000000E+00  0.00000000E+00  0.00000000E+00
  0.00000000E+00  0.00000000E+00  0.00000000E+00
  0.00000000E+00  0.00000000E+00  0.00000000E+00
  0.00000000E+00  0.00000000E+00  0.00000000E+00
  0.00000000E+00  0.00000000E+00  0.00000000E+00
  0.00000000E+00  0.00000000E+00  0.00000000E+00
  0.00000000E+00  0.00000000E+00  0.00000000E+00
  0.00000000E+00  0.00000000E+00  0.00000000E+00
  0.00000000E+00  0.00000000E+00  0.00000000E+00
  0.00000000E+00  0.00000000E+00  0.00000000E+00
  0.00000000E+00  0.00000000E+00  0.00000000E+00
  0.00000000E+00  0.00000000E+00  0.00000000E+00
  0.00000000E+00  0.00000000E+00  0.00000000E+00
  0.00000000E+00  0.00000000E+00  0.00000000E+00
  0.00000000E+00  0.00000000E+00  0.00000000E+00
  0.00000000E+00  0.00000000E+00  0.00000000E+00
  0.00000000E+00  0.00000000E+00  0.00000000E+00
  0.00000000E+00  0.00000000E+00  0.00000000E+00
  0.00000000E+00  0.00000000E+00  0.00000000E+00
  0.00000000E+00  0.00000000E+00  0.00000000E+00
  0.00000000E+00  0.00000000E+00  0.00000000E+00
  0.00000000E+00  0.00000000E+00  0.00000000E+00
  0.00000000E+00  0.00000000E+00  0.00000000E+00
  0.00000000E+00  0.00000000E+00  0.00000000E+00
  0.00000000E+00  0.00000000E+00  0.00000000E+00
  0.00000000E+00  0.00000000E+00  0.00000000E+00
  0.00000000E+00  0.00000000E+00  0.00000000E+00
  0.00000000E+00  0.00000000E+00  0.00000000E+00
