Ir16 Br2 O32                            
   1.00000000000000     
     6.3822810800000003    0.0000000000000000    0.0000000000000004
     0.0000000000000010    6.4172767899999998    0.0000000000000004
     0.0000000000000000    0.0000000000000000   32.0863839299999967
   Ir   Br   O 
    16     2    32
Selective dynamics
Direct
  0.2500000000000000  0.5000000000000000  0.1499999999999986   F   F   F
  0.7500000000000000  0.5000000000000000  0.1499999999999986   F   F   F
  0.2500000000000000  0.0000000000000000  0.0499999999999972   F   F   F
  0.7500000000000000  0.0000000000000000  0.0499999999999972   F   F   F
  0.0000000000000000  0.5000000000000000  0.0499999999999972   F   F   F
  0.5000000000000000  0.5000000000000000  0.0499999999999972   F   F   F
  0.0000000000000000  0.0000000000000000  0.1499999999999986   F   F   F
  0.5000000000000000  0.0000000000000000  0.1499999999999986   F   F   F
  0.2500120423754360  0.5000006014911307  0.3503473129444521   T   T   T
  0.7499881450978467  0.5000004144107273  0.3503468032781983   T   T   T
  0.2499954390435836  0.0000004211500462  0.2498376272593506   T   T   T
  0.7500046571574608  0.0000004901071668  0.2498376955582480   T   T   T
  0.0000002941312778  0.5000004343119826  0.2501462639981636   T   T   T
  0.4999998206354189  0.5000005265684353  0.2501462261429911   T   T   T
  0.0000004669190422 -0.0000001369804635  0.3507215408874214   T   T   T
  0.4999996923340966  0.0000006269683277  0.3507220805430276   T   T   T
  0.0000003786456302  0.9999747316175190  0.4271458279326724   T   T   T
  0.4999997301889207  0.9999993957581267  0.4271440178822306   T   T   T
  0.0000000000000000  0.5000000000000000  0.1117544100000032   F   F   F
  0.5000000000000000  0.5000000000000000  0.1117544100000032   F   F   F
  0.0000000000000000  0.0000000000000000  0.0117544100000018   F   F   F
  0.5000000000000000  0.0000000000000000  0.0117544100000018   F   F   F
  0.2500000000000000  0.8087720600000026  0.1499999999999986   F   F   F
  0.7500000000000000  0.8087720600000026  0.1499999999999986   F   F   F
  0.2500000000000000  0.3087720600000026  0.0499999999999972   F   F   F
  0.7500000000000000  0.3087720600000026  0.0499999999999972   F   F   F
  0.0000000000000000  0.5000000000000000  0.1882455900000011   F   F   F
  0.5000000000000000  0.5000000000000000  0.1882455900000011   F   F   F
  0.0000000000000000  0.0000000000000000  0.0882455899999997   F   F   F
  0.5000000000000000  0.0000000000000000  0.0882455899999997   F   F   F
  0.2500000000000000  0.1912279399999974  0.1499999999999986   F   F   F
  0.7500000000000000  0.1912279399999974  0.1499999999999986   F   F   F
  0.2500000000000000  0.6912279399999974  0.0499999999999972   F   F   F
  0.7500000000000000  0.6912279399999974  0.0499999999999972   F   F   F
  0.0000016360284688  0.4999997530255570  0.3116626245418015   T   T   T
  0.4999985487583354  0.4999996869568250  0.3116657128114699   T   T   T
  0.9999993990692249  0.9999998275919982  0.2116059886864345   T   T   T
  0.5000006867549839  0.9999998471789318  0.2116098619722694   T   T   T
  0.2499979929543640  0.8073242271663643  0.3496680813377606   T   T   T
  0.7500021936046798  0.8073269791185969  0.3496680884052682   T   T   T
  0.2499943415887802  0.3084664265080962  0.2497196741314466   T   T   T
  0.7500057997360388  0.3084669943612443  0.2497197382974492   T   T   T
  0.0000021410695030  0.5000010033619376  0.3870128156558825   T   T   T
  0.4999980293428433  0.5000014350466622  0.3870153549227578   T   T   T
  0.9999995933922545  0.0000016877724482  0.2877658784399184   T   T   T
  0.5000005643172897  0.0000014747055021  0.2877650873211497   T   T   T
  0.2499974612174635  0.1926767615774122  0.3496686909386529   T   T   T
  0.7500026898116308  0.1926739639462891  0.3496688079306933   T   T   T
  0.2499942109530967  0.6915346259091228  0.2497202944689203   T   T   T
  0.7500059229752589  0.6915340381419067  0.2497203555616629   T   T   T
 
  0.00000000E+00  0.00000000E+00  0.00000000E+00
  0.00000000E+00  0.00000000E+00  0.00000000E+00
  0.00000000E+00  0.00000000E+00  0.00000000E+00
  0.00000000E+00  0.00000000E+00  0.00000000E+00
  0.00000000E+00  0.00000000E+00  0.00000000E+00
  0.00000000E+00  0.00000000E+00  0.00000000E+00
  0.00000000E+00  0.00000000E+00  0.00000000E+00
  0.00000000E+00  0.00000000E+00  0.00000000E+00
  0.00000000E+00  0.00000000E+00  0.00000000E+00
  0.00000000E+00  0.00000000E+00  0.00000000E+00
  0.00000000E+00  0.00000000E+00  0.00000000E+00
  0.00000000E+00  0.00000000E+00  0.00000000E+00
  0.00000000E+00  0.00000000E+00  0.00000000E+00
  0.00000000E+00  0.00000000E+00  0.00000000E+00
  0.00000000E+00  0.00000000E+00  0.00000000E+00
  0.00000000E+00  0.00000000E+00  0.00000000E+00
  0.00000000E+00  0.00000000E+00  0.00000000E+00
  0.00000000E+00  0.00000000E+00  0.00000000E+00
  0.00000000E+00  0.00000000E+00  0.00000000E+00
  0.00000000E+00  0.00000000E+00  0.00000000E+00
  0.00000000E+00  0.00000000E+00  0.00000000E+00
  0.00000000E+00  0.00000000E+00  0.00000000E+00
  0.00000000E+00  0.00000000E+00  0.00000000E+00
  0.00000000E+00  0.00000000E+00  0.00000000E+00
  0.00000000E+00  0.00000000E+00  0.00000000E+00
  0.00000000E+00  0.00000000E+00  0.00000000E+00
  0.00000000E+00  0.00000000E+00  0.00000000E+00
  0.00000000E+00  0.00000000E+00  0.00000000E+00
  0.00000000E+00  0.00000000E+00  0.00000000E+00
  0.00000000E+00  0.00000000E+00  0.00000000E+00
  0.00000000E+00  0.00000000E+00  0.00000000E+00
  0.00000000E+00  0.00000000E+00  0.00000000E+00
  0.00000000E+00  0.00000000E+00  0.00000000E+00
  0.00000000E+00  0.00000000E+00  0.00000000E+00
  0.00000000E+00  0.00000000E+00  0.00000000E+00
  0.00000000E+00  0.00000000E+00  0.00000000E+00
  0.00000000E+00  0.00000000E+00  0.00000000E+00
  0.00000000E+00  0.00000000E+00  0.00000000E+00
  0.00000000E+00  0.00000000E+00  0.00000000E+00
  0.00000000E+00  0.00000000E+00  0.00000000E+00
  0.00000000E+00  0.00000000E+00  0.00000000E+00
  0.00000000E+00  0.00000000E+00  0.00000000E+00
  0.00000000E+00  0.00000000E+00  0.00000000E+00
  0.00000000E+00  0.00000000E+00  0.00000000E+00
  0.00000000E+00  0.00000000E+00  0.00000000E+00
  0.00000000E+00  0.00000000E+00  0.00000000E+00
  0.00000000E+00  0.00000000E+00  0.00000000E+00
  0.00000000E+00  0.00000000E+00  0.00000000E+00
  0.00000000E+00  0.00000000E+00  0.00000000E+00
  0.00000000E+00  0.00000000E+00  0.00000000E+00
