Sn24 H1 O50                             
   1.00000000000000     
     6.4768679999999996    0.0000000000000000    0.0000000000000000
     0.0000000000000000    9.6441199999999991    0.0000000000000000
     0.0000000000000000    0.0000000000000000   28.9323580000000007
   Sn   H    O 
    24     1    50
Selective dynamics
Direct
  0.2500000000000000  0.2500000000000000  0.2916669999999968   F   F   F
  0.2500000000000000  0.7500000000000000  0.2916669999999968   F   F   F
  0.7500000000000000  0.2500000000000000  0.2916669999999968   F   F   F
  0.7500000000000000  0.7500000000000000  0.2916669999999968   F   F   F
  0.0000000000000000  0.0000000000000000  0.3750000000000000   F   F   F
  0.0000000000000000  0.5000000000000000  0.3750000000000000   F   F   F
  0.5000000000000000  0.0000000000000000  0.3750000000000000   F   F   F
  0.5000000000000000  0.5000000000000000  0.3750000000000000   F   F   F
  0.2500000000000000  0.2500000000000000  0.4583330000000032   F   F   F
  0.2500000000000000  0.7500000000000000  0.4583330000000032   F   F   F
  0.7500000000000000  0.2500000000000000  0.4583330000000032   F   F   F
  0.7500000000000000  0.7500000000000000  0.4583330000000032   F   F   F
 -0.0005320147030182 -0.0007617950279862  0.5433465879768623   T   T   T
 -0.0004897859071131  0.4982145279070797  0.5433309896582293   T   T   T
  0.4994620610522507 -0.0010029438017744  0.5433526952444189   T   T   T
  0.4994126519634576  0.4986143250001871  0.5435239019450216   T   T   T
  0.2495454366267792  0.2477635619490172  0.6290331259216225   T   T   T
  0.2473709944297710  0.7488246342063519  0.6282128739647316   T   T   T
  0.7493267541079106  0.2482489131920885  0.6289122495166600   T   T   T
  0.7495976544661208  0.7487509789043334  0.6282725108461777   T   T   T
 -0.0015467353898830 -0.0067493314009494  0.7157869393554371   T   T   T
 -0.0018617211056980  0.4937952766741761  0.7143177498315779   T   T   T
  0.5005973171042347 -0.0119691678108189  0.7128550623831508   T   T   T
  0.4982614794939652  0.4942028054501114  0.7142181070592509   T   T   T
  0.0476825221835245  0.1648345390743231  0.8420466193341303   T   T   T
  0.2500000000000000  0.0967800000000025  0.3427399999999992   F   F   F
  0.2500000000000000  0.5967800000000025  0.3427399999999992   F   F   F
  0.7500000000000000  0.0967800000000025  0.3427399999999992   F   F   F
  0.7500000000000000  0.5967800000000025  0.3427399999999992   F   F   F
  0.2500000000000000  0.4032199999999975  0.4072600000000008   F   F   F
  0.2500000000000000  0.9032199999999975  0.4072600000000008   F   F   F
  0.7500000000000000  0.4032199999999975  0.4072600000000008   F   F   F
  0.7500000000000000  0.9032199999999975  0.4072600000000008   F   F   F
  0.0000000000000000  0.1532199999999975  0.2594070000000031   F   F   F
  0.0000000000000000  0.6532199999999975  0.2594070000000031   F   F   F
  0.5000000000000000  0.1532199999999975  0.2594070000000031   F   F   F
  0.5000000000000000  0.6532199999999975  0.2594070000000031   F   F   F
  0.0000000000000000  0.3467800000000025  0.3239269999999976   F   F   F
  0.0000000000000000  0.8467800000000025  0.3239269999999976   F   F   F
  0.5000000000000000  0.3467800000000025  0.3239269999999976   F   F   F
  0.5000000000000000  0.8467800000000025  0.3239269999999976   F   F   F
  0.2498050719974862  0.0983318052339668  0.5111523216486309   T   T   T
  0.2495837029654519  0.5966643917652066  0.5108030040945685   T   T   T
  0.7496981054453957  0.0984820837086055  0.5111619002169980   T   T   T
  0.7497026558691168  0.5973153562063208  0.5110367297908726   T   T   T
  0.2493736343272886  0.3987251323574343  0.5757415287804271   T   T   T
  0.2490227167412297  0.8995835741210417  0.5752754069047878   T   T   T
  0.7496185788041311  0.3989208937786726  0.5757143630422222   T   T   T
  0.7493018108291370  0.8997927275354443  0.5753460719162778   T   T   T
  0.0000000000000000  0.1532199999999975  0.4260730000000024   F   F   F
  0.0000000000000000  0.6532199999999975  0.4260730000000024   F   F   F
  0.5000000000000000  0.1532199999999975  0.4260730000000024   F   F   F
  0.5000000000000000  0.6532199999999975  0.4260730000000024   F   F   F
  0.0000000000000000  0.3467800000000025  0.4905929999999969   F   F   F
  0.0000000000000000  0.8467800000000025  0.4905929999999969   F   F   F
  0.5000000000000000  0.3467800000000025  0.4905929999999969   F   F   F
  0.5000000000000000  0.8467800000000025  0.4905929999999969   F   F   F
  0.2508229783182510  0.1083935984933057  0.6848218594514083   T   T   T
  0.2478385604382915  0.6104581101329311  0.6840046077532319   T   T   T
  0.7480961641557173  0.1101460072619540  0.6848057051735754   T   T   T
  0.7481326146901941  0.6098472276186409  0.6839163233228672   T   T   T
  0.2485847789848617  0.4359890732955189  0.7527986390887108   T   T   T
  0.2539811105109080  0.9160142971954874  0.7496845163695076   T   T   T
  0.7482581658725362  0.4343487385998315  0.7526103492728321   T   T   T
  0.7456856471215680  0.9173991245839155  0.7494423293355543   T   T   T
 -0.0005597333544103  0.1491111634949302  0.5969099985498550   T   T   T
 -0.0014871056896587  0.6485935292080488  0.5964185726261144   T   T   T
  0.4994787758835056  0.1489916675274812  0.5968653394567069   T   T   T
  0.4983323604515863  0.6488542216749542  0.5965032615916586   T   T   T
 -0.0004665624683588  0.3512502004650920  0.6606042786430987   T   T   T
 -0.0015346097039800  0.8529949133847887  0.6596771758888914   T   T   T
  0.4989167381403359  0.3516212297802416  0.6605613016460891   T   T   T
  0.4982860499614871  0.8504233827107628  0.6587699112718697   T   T   T
  0.0738512610855586  0.1458679369237403  0.7787101305520804   T   T   T
  0.9603419259719072  0.1225789778743761  0.8178103418241971   T   T   T
 
  0.00000000E+00  0.00000000E+00  0.00000000E+00
  0.00000000E+00  0.00000000E+00  0.00000000E+00
  0.00000000E+00  0.00000000E+00  0.00000000E+00
  0.00000000E+00  0.00000000E+00  0.00000000E+00
  0.00000000E+00  0.00000000E+00  0.00000000E+00
  0.00000000E+00  0.00000000E+00  0.00000000E+00
  0.00000000E+00  0.00000000E+00  0.00000000E+00
  0.00000000E+00  0.00000000E+00  0.00000000E+00
  0.00000000E+00  0.00000000E+00  0.00000000E+00
  0.00000000E+00  0.00000000E+00  0.00000000E+00
  0.00000000E+00  0.00000000E+00  0.00000000E+00
  0.00000000E+00  0.00000000E+00  0.00000000E+00
  0.00000000E+00  0.00000000E+00  0.00000000E+00
  0.00000000E+00  0.00000000E+00  0.00000000E+00
  0.00000000E+00  0.00000000E+00  0.00000000E+00
  0.00000000E+00  0.00000000E+00  0.00000000E+00
  0.00000000E+00  0.00000000E+00  0.00000000E+00
  0.00000000E+00  0.00000000E+00  0.00000000E+00
  0.00000000E+00  0.00000000E+00  0.00000000E+00
  0.00000000E+00  0.00000000E+00  0.00000000E+00
  0.00000000E+00  0.00000000E+00  0.00000000E+00
  0.00000000E+00  0.00000000E+00  0.00000000E+00
  0.00000000E+00  0.00000000E+00  0.00000000E+00
  0.00000000E+00  0.00000000E+00  0.00000000E+00
  0.00000000E+00  0.00000000E+00  0.00000000E+00
  0.00000000E+00  0.00000000E+00  0.00000000E+00
  0.00000000E+00  0.00000000E+00  0.00000000E+00
  0.00000000E+00  0.00000000E+00  0.00000000E+00
  0.00000000E+00  0.00000000E+00  0.00000000E+00
  0.00000000E+00  0.00000000E+00  0.00000000E+00
  0.00000000E+00  0.00000000E+00  0.00000000E+00
  0.00000000E+00  0.00000000E+00  0.00000000E+00
  0.00000000E+00  0.00000000E+00  0.00000000E+00
  0.00000000E+00  0.00000000E+00  0.00000000E+00
  0.00000000E+00  0.00000000E+00  0.00000000E+00
  0.00000000E+00  0.00000000E+00  0.00000000E+00
  0.00000000E+00  0.00000000E+00  0.00000000E+00
  0.00000000E+00  0.00000000E+00  0.00000000E+00
  0.00000000E+00  0.00000000E+00  0.00000000E+00
  0.00000000E+00  0.00000000E+00  0.00000000E+00
  0.00000000E+00  0.00000000E+00  0.00000000E+00
  0.00000000E+00  0.00000000E+00  0.00000000E+00
  0.00000000E+00  0.00000000E+00  0.00000000E+00
  0.00000000E+00  0.00000000E+00  0.00000000E+00
  0.00000000E+00  0.00000000E+00  0.00000000E+00
  0.00000000E+00  0.00000000E+00  0.00000000E+00
  0.00000000E+00  0.00000000E+00  0.00000000E+00
  0.00000000E+00  0.00000000E+00  0.00000000E+00
  0.00000000E+00  0.00000000E+00  0.00000000E+00
  0.00000000E+00  0.00000000E+00  0.00000000E+00
  0.00000000E+00  0.00000000E+00  0.00000000E+00
  0.00000000E+00  0.00000000E+00  0.00000000E+00
  0.00000000E+00  0.00000000E+00  0.00000000E+00
  0.00000000E+00  0.00000000E+00  0.00000000E+00
  0.00000000E+00  0.00000000E+00  0.00000000E+00
  0.00000000E+00  0.00000000E+00  0.00000000E+00
  0.00000000E+00  0.00000000E+00  0.00000000E+00
  0.00000000E+00  0.00000000E+00  0.00000000E+00
  0.00000000E+00  0.00000000E+00  0.00000000E+00
  0.00000000E+00  0.00000000E+00  0.00000000E+00
  0.00000000E+00  0.00000000E+00  0.00000000E+00
  0.00000000E+00  0.00000000E+00  0.00000000E+00
  0.00000000E+00  0.00000000E+00  0.00000000E+00
  0.00000000E+00  0.00000000E+00  0.00000000E+00
  0.00000000E+00  0.00000000E+00  0.00000000E+00
  0.00000000E+00  0.00000000E+00  0.00000000E+00
  0.00000000E+00  0.00000000E+00  0.00000000E+00
  0.00000000E+00  0.00000000E+00  0.00000000E+00
  0.00000000E+00  0.00000000E+00  0.00000000E+00
  0.00000000E+00  0.00000000E+00  0.00000000E+00
  0.00000000E+00  0.00000000E+00  0.00000000E+00
  0.00000000E+00  0.00000000E+00  0.00000000E+00
  0.00000000E+00  0.00000000E+00  0.00000000E+00
  0.00000000E+00  0.00000000E+00  0.00000000E+00
  0.00000000E+00  0.00000000E+00  0.00000000E+00
