Sn24 H1 O50
1.0
6.476868 0.000000 0.000000
0.000000 9.644120 0.000000
0.000000 0.000000 28.932358
Sn H O
24 1 50
Selective dynamics
direct
0.250000 0.250000 0.291667 F F F Sn
0.250000 0.750000 0.291667 F F F Sn
0.750000 0.250000 0.291667 F F F Sn
0.750000 0.750000 0.291667 F F F Sn
0.000000 0.000000 0.375000 F F F Sn
0.000000 0.500000 0.375000 F F F Sn
0.500000 0.000000 0.375000 F F F Sn
0.500000 0.500000 0.375000 F F F Sn
0.250000 0.250000 0.458333 F F F Sn
0.250000 0.750000 0.458333 F F F Sn
0.750000 0.250000 0.458333 F F F Sn
0.750000 0.750000 0.458333 F F F Sn
0.000000 0.000000 0.541667 T T T Sn
0.000000 0.500000 0.541667 T T T Sn
0.500000 0.000000 0.541667 T T T Sn
0.500000 0.500000 0.541667 T T T Sn
0.250000 0.250000 0.625000 T T T Sn
0.250000 0.750000 0.625000 T T T Sn
0.750000 0.250000 0.625000 T T T Sn
0.750000 0.750000 0.625000 T T T Sn
0.000000 0.000000 0.708333 T T T Sn
0.000000 0.500000 0.708333 T T T Sn
0.500000 0.000000 0.708333 T T T Sn
0.500000 0.500000 0.708333 T T T Sn
-0.107459 -0.028204 0.839881 T T T H
0.250000 0.096780 0.342740 F F F O
0.250000 0.596780 0.342740 F F F O
0.750000 0.096780 0.342740 F F F O
0.750000 0.596780 0.342740 F F F O
0.250000 0.403220 0.407260 F F F O
0.250000 0.903220 0.407260 F F F O
0.750000 0.403220 0.407260 F F F O
0.750000 0.903220 0.407260 F F F O
0.000000 0.153220 0.259407 F F F O
0.000000 0.653220 0.259407 F F F O
0.500000 0.153220 0.259407 F F F O
0.500000 0.653220 0.259407 F F F O
0.000000 0.346780 0.323927 F F F O
0.000000 0.846780 0.323927 F F F O
0.500000 0.346780 0.323927 F F F O
0.500000 0.846780 0.323927 F F F O
0.250000 0.096780 0.509407 T T T O
0.250000 0.596780 0.509407 T T T O
0.750000 0.096780 0.509407 T T T O
0.750000 0.596780 0.509407 T T T O
0.250000 0.403220 0.573927 T T T O
0.250000 0.903220 0.573927 T T T O
0.750000 0.403220 0.573927 T T T O
0.750000 0.903220 0.573927 T T T O
0.000000 0.153220 0.426073 F F F O
0.000000 0.653220 0.426073 F F F O
0.500000 0.153220 0.426073 F F F O
0.500000 0.653220 0.426073 F F F O
0.000000 0.346780 0.490593 F F F O
0.000000 0.846780 0.490593 F F F O
0.500000 0.346780 0.490593 F F F O
0.500000 0.846780 0.490593 F F F O
0.250000 0.096780 0.676073 T T T O
0.250000 0.596780 0.676073 T T T O
0.750000 0.096780 0.676073 T T T O
0.750000 0.596780 0.676073 T T T O
0.250000 0.403220 0.740593 T T T O
0.250000 0.903220 0.740593 T T T O
0.750000 0.403220 0.740593 T T T O
0.750000 0.903220 0.740593 T T T O
0.000000 0.153220 0.592740 T T T O
0.000000 0.653220 0.592740 T T T O
0.500000 0.153220 0.592740 T T T O
0.500000 0.653220 0.592740 T T T O
0.000000 0.346780 0.657260 T T T O
0.000000 0.846780 0.657260 T T T O
0.500000 0.346780 0.657260 T T T O
0.500000 0.846780 0.657260 T T T O
0.000000 0.000000 0.780916 T T T O
-0.164740 -0.041787 0.808429 T T T O
