Ir48 O102                               
   1.00000000000000     
     9.5685210000000005    0.0000000000000000    0.0000000000000006
     0.0000000000000021   12.8550287399999998    0.0000000000000008
     0.0000000000000000    0.0000000000000000   32.1375718700000021
   Ir   O 
    48   102
Selective dynamics
Direct
  0.1666666666666643  0.2500000000000000  0.1499999999999986   F   F   F
  0.1666666666666643  0.7500000000000000  0.1499999999999986   F   F   F
  0.5000000000000000  0.2500000000000000  0.1499999999999986   F   F   F
  0.5000000000000000  0.7500000000000000  0.1499999999999986   F   F   F
  0.8333333333333357  0.2500000000000000  0.1499999999999986   F   F   F
  0.8333333333333357  0.7500000000000000  0.1499999999999986   F   F   F
  0.1666666666666643  0.0000000000000000  0.0499999999999972   F   F   F
  0.1666666666666643  0.5000000000000000  0.0499999999999972   F   F   F
  0.5000000000000000  0.0000000000000000  0.0499999999999972   F   F   F
  0.5000000000000000  0.5000000000000000  0.0499999999999972   F   F   F
  0.8333333333333357  0.0000000000000000  0.0499999999999972   F   F   F
  0.8333333333333357  0.5000000000000000  0.0499999999999972   F   F   F
  0.0000000000000000  0.2500000000000000  0.0499999999999972   F   F   F
  0.0000000000000000  0.7500000000000000  0.0499999999999972   F   F   F
  0.3333333333333357  0.2500000000000000  0.0499999999999972   F   F   F
  0.3333333333333357  0.7500000000000000  0.0499999999999972   F   F   F
  0.6666666666666643  0.2500000000000000  0.0499999999999972   F   F   F
  0.6666666666666643  0.7500000000000000  0.0499999999999972   F   F   F
  0.0000000000000000  0.0000000000000000  0.1499999999999986   F   F   F
  0.0000000000000000  0.5000000000000000  0.1499999999999986   F   F   F
  0.3333333333333357  0.0000000000000000  0.1499999999999986   F   F   F
  0.3333333333333357  0.5000000000000000  0.1499999999999986   F   F   F
  0.6666666666666643  0.0000000000000000  0.1499999999999986   F   F   F
  0.6666666666666643  0.5000000000000000  0.1499999999999986   F   F   F
  0.1666090628831374  0.2500078779840496  0.3499302428282792   T   T   T
  0.1666986653438994  0.7499916256442157  0.3499310025997452   T   T   T
  0.5000360611921976  0.2500053694633801  0.3499269162724259   T   T   T
  0.5000295309117152  0.7499936038045311  0.3499108988799810   T   T   T
  0.8333665186984556  0.2500062865646213  0.3499191324221142   T   T   T
  0.8332827607328631  0.7499940042506975  0.3499251969047744   T   T   T
  0.1666742483752094 -0.0000052944337193  0.2500707156144199   T   T   T
  0.1666853528419396  0.5000051888605630  0.2500575446501799   T   T   T
  0.5000188419669919 -0.0000092354922843  0.2500723755843584   T   T   T
  0.4999945087611198  0.5000092348372672  0.2500602467269779   T   T   T
  0.8333060891996542 -0.0000043789169215  0.2500727702425365   T   T   T
  0.8333289554958369  0.5000052576666919  0.2500605716896879   T   T   T
  0.9999913376595514  0.2499974132012560  0.2501580490720499   T   T   T
  0.9999948902510286  0.7500027479402572  0.2501500029812865   T   T   T
  0.3333268061189781  0.2499963914257397  0.2501542791085280   T   T   T
  0.3333619838885161  0.7500036180065647  0.2501540436443994   T   T   T
  0.6666852429681935  0.2499962978956004  0.2501550737767818   T   T   T
  0.6666487872077909  0.7500048379463606  0.2501548123678767   T   T   T
  0.9999784374056389  0.0000020009384384  0.3524932053648948   T   T   T
  0.0000022481881527  0.5000015828739012  0.3524868872305583   T   T   T
  0.3333381769653653 -0.0000026174174935  0.3524928609409893   T   T   T
  0.3333560008653088  0.5000013973351645  0.3524551233356845   T   T   T
  0.6666689224031461 -0.0000021334237128  0.3524950165839518   T   T   T
  0.6666860950536957  0.5000024427528654  0.3524835096055870   T   T   T
  0.0000000000000000  0.2500000000000000  0.1116707999999988   F   F   F
  0.0000000000000000  0.7500000000000000  0.1116707999999988   F   F   F
  0.3333333333333357  0.2500000000000000  0.1116707999999988   F   F   F
  0.3333333333333357  0.7500000000000000  0.1116707999999988   F   F   F
  0.6666666666666643  0.2500000000000000  0.1116707999999988   F   F   F
  0.6666666666666643  0.7500000000000000  0.1116707999999988   F   F   F
  0.0000000000000000  0.0000000000000000  0.0116707999999974   F   F   F
  0.0000000000000000  0.5000000000000000  0.0116707999999974   F   F   F
  0.3333333333333357  0.0000000000000000  0.0116707999999974   F   F   F
  0.3333333333333357  0.5000000000000000  0.0116707999999974   F   F   F
  0.6666666666666643  0.0000000000000000  0.0116707999999974   F   F   F
  0.6666666666666643  0.5000000000000000  0.0116707999999974   F   F   F
  0.1666666666666643  0.0958230000000029  0.1499999999999986   F   F   F
  0.1666666666666643  0.5958230000000029  0.1499999999999986   F   F   F
  0.5000000000000000  0.0958230000000029  0.1499999999999986   F   F   F
  0.5000000000000000  0.5958230000000029  0.1499999999999986   F   F   F
  0.8333333333333357  0.0958230000000029  0.1499999999999986   F   F   F
  0.8333333333333357  0.5958230000000029  0.1499999999999986   F   F   F
  0.1666666666666643  0.3458230000000029  0.0499999999999972   F   F   F
  0.1666666666666643  0.8458230000000029  0.0499999999999972   F   F   F
  0.5000000000000000  0.3458230000000029  0.0499999999999972   F   F   F
  0.5000000000000000  0.8458230000000029  0.0499999999999972   F   F   F
  0.8333333333333357  0.3458230000000029  0.0499999999999972   F   F   F
  0.8333333333333357  0.8458230000000029  0.0499999999999972   F   F   F
  0.0000000000000000  0.2500000000000000  0.1883291999999983   F   F   F
  0.0000000000000000  0.7500000000000000  0.1883291999999983   F   F   F
  0.3333333333333357  0.2500000000000000  0.1883291999999983   F   F   F
  0.3333333333333357  0.7500000000000000  0.1883291999999983   F   F   F
  0.6666666666666643  0.2500000000000000  0.1883291999999983   F   F   F
  0.6666666666666643  0.7500000000000000  0.1883291999999983   F   F   F
  0.0000000000000000  0.0000000000000000  0.0883291999999969   F   F   F
  0.0000000000000000  0.5000000000000000  0.0883291999999969   F   F   F
  0.3333333333333357  0.0000000000000000  0.0883291999999969   F   F   F
  0.3333333333333357  0.5000000000000000  0.0883291999999969   F   F   F
  0.6666666666666643  0.0000000000000000  0.0883291999999969   F   F   F
  0.6666666666666643  0.5000000000000000  0.0883291999999969   F   F   F
  0.1666666666666643  0.4041769999999971  0.1499999999999986   F   F   F
  0.1666666666666643  0.9041769999999971  0.1499999999999986   F   F   F
  0.5000000000000000  0.4041769999999971  0.1499999999999986   F   F   F
  0.5000000000000000  0.9041769999999971  0.1499999999999986   F   F   F
  0.8333333333333357  0.4041769999999971  0.1499999999999986   F   F   F
  0.8333333333333357  0.9041769999999971  0.1499999999999986   F   F   F
  0.1666666666666643  0.1541769999999971  0.0499999999999972   F   F   F
  0.1666666666666643  0.6541769999999971  0.0499999999999972   F   F   F
  0.5000000000000000  0.1541769999999971  0.0499999999999972   F   F   F
  0.5000000000000000  0.6541769999999971  0.0499999999999972   F   F   F
  0.8333333333333357  0.1541769999999971  0.0499999999999972   F   F   F
  0.8333333333333357  0.6541769999999971  0.0499999999999972   F   F   F
  0.0000071769810803  0.2499903305356216  0.3113107837111239   T   T   T
  0.0000046389915676  0.7500093451502888  0.3113094960796716   T   T   T
  0.3333377499619660  0.2499849233397394  0.3113090436823532   T   T   T
  0.3333271569891958  0.7500131727108711  0.3113086502161234   T   T   T
  0.6666647153362246  0.2499849148599483  0.3113070178420114   T   T   T
  0.6666756144325066  0.7500129359529599  0.3113091362004431   T   T   T
  0.0000024693281139  0.9999907754966000  0.2117162544111097   T   T   T
 -0.0000039058905879  0.5000083668401223  0.2117079655380606   T   T   T
  0.3333290133231508  0.9999909883540756  0.2117182087587318   T   T   T
  0.3333367248937559  0.5000073425670590  0.2117092159231512   T   T   T
  0.6666685215723780  0.9999916644038278  0.2117166796208025   T   T   T
  0.6666719505118575  0.5000079860504206  0.2117060805674656   T   T   T
  0.1666655281245587  0.0952450584731582  0.3483312263858145   T   T   T
  0.1666739023545696  0.5952375252911184  0.3483059110127661   T   T   T
  0.4999985158027002  0.0952412225597988  0.3483343986940528   T   T   T
  0.5000071115435607  0.5952369419114835  0.3482960692426167   T   T   T
  0.8333299957676640  0.0952407870414038  0.3483299559898100   T   T   T
  0.8333444879585643  0.5952363767452473  0.3483044089466856   T   T   T
  0.1666658992256812  0.3457779370828218  0.2498160134756112   T   T   T
  0.1666592446903916  0.8457789674732451  0.2498282152509255   T   T   T
  0.5000017943683490  0.3457762587454828  0.2498169044458708   T   T   T
  0.4999967431502777  0.8457757772347659  0.2498260716263965   T   T   T
  0.8333334433094001  0.3457771591782329  0.2498128500883580   T   T   T
  0.8333412316893403  0.8457757500109463  0.2498269396270573   T   T   T
  0.0000065983744527  0.2500322242039815  0.3861914435765333   T   T   T
  0.0000087049897652  0.7499712804902642  0.3861961487020235   T   T   T
  0.3333489246142211  0.2500437138975282  0.3861954184695604   T   T   T
  0.3333217922094654  0.7499630853425324  0.3861943004253218   T   T   T
  0.6666586911834869  0.2500401071901233  0.3861903936613168   T   T   T
  0.6666808687799117  0.7499616079872081  0.3861921573681100   T   T   T
  0.0000028389388008  0.9999893736057435  0.2884924763223431   T   T   T
  0.9999994001869900  0.5000109974253653  0.2884731077864752   T   T   T
  0.3333282459869555  0.9999926106668890  0.2884877445077918   T   T   T
  0.3333347119919622  0.5000054016966436  0.2884681616403111   T   T   T
  0.6666663700472896  0.9999931530606949  0.2884902689342277   T   T   T
  0.6666763895236772  0.5000064887409806  0.2884762837607766   T   T   T
  0.1666770703519706  0.4047628225152422  0.3483022981441737   T   T   T
  0.1666627482353059  0.9047560656053178  0.3483339272726476   T   T   T
  0.5000094782761191  0.4047626320448430  0.3482973621518725   T   T   T
  0.4999961753989244  0.9047567828675636  0.3483335320991605   T   T   T
  0.8333405383762559  0.4047656854002139  0.3482976826408899   T   T   T
  0.8333342866423045  0.9047578767423791  0.3483356171564983   T   T   T
  0.1666677290708126  0.1542118517401581  0.2498285520911001   T   T   T
  0.1666580640473455  0.6542264159490981  0.2498147692448810   T   T   T
  0.4999969285712216  0.1542145150991597  0.2498288230925854   T   T   T
  0.5000011813450194  0.6542287237898954  0.2498134871590165   T   T   T
  0.8333359320260301  0.1542163673487309  0.2498250773615384   T   T   T
  0.8333391172404240  0.6542267176868336  0.2498137035259849   T   T   T
  0.9999733049946866  0.4999996421169152  0.4081732434014851   T   T   T
  0.3333454518092314  0.4999965119246413  0.4081729158223062   T   T   T
  0.6666496387336383  0.4999958951631153  0.4081763665317842   T   T   T
 -0.0000119520763092  0.0000025992923483  0.4082063665328221   T   T   T
  0.3333232798519124  0.0000052037798421  0.4082041330543650   T   T   T
  0.6666839577661439  0.0000015840955812  0.4082070676985153   T   T   T
 
  0.00000000E+00  0.00000000E+00  0.00000000E+00
  0.00000000E+00  0.00000000E+00  0.00000000E+00
  0.00000000E+00  0.00000000E+00  0.00000000E+00
  0.00000000E+00  0.00000000E+00  0.00000000E+00
  0.00000000E+00  0.00000000E+00  0.00000000E+00
  0.00000000E+00  0.00000000E+00  0.00000000E+00
  0.00000000E+00  0.00000000E+00  0.00000000E+00
  0.00000000E+00  0.00000000E+00  0.00000000E+00
  0.00000000E+00  0.00000000E+00  0.00000000E+00
  0.00000000E+00  0.00000000E+00  0.00000000E+00
  0.00000000E+00  0.00000000E+00  0.00000000E+00
  0.00000000E+00  0.00000000E+00  0.00000000E+00
  0.00000000E+00  0.00000000E+00  0.00000000E+00
  0.00000000E+00  0.00000000E+00  0.00000000E+00
  0.00000000E+00  0.00000000E+00  0.00000000E+00
  0.00000000E+00  0.00000000E+00  0.00000000E+00
  0.00000000E+00  0.00000000E+00  0.00000000E+00
  0.00000000E+00  0.00000000E+00  0.00000000E+00
  0.00000000E+00  0.00000000E+00  0.00000000E+00
  0.00000000E+00  0.00000000E+00  0.00000000E+00
  0.00000000E+00  0.00000000E+00  0.00000000E+00
  0.00000000E+00  0.00000000E+00  0.00000000E+00
  0.00000000E+00  0.00000000E+00  0.00000000E+00
  0.00000000E+00  0.00000000E+00  0.00000000E+00
  0.00000000E+00  0.00000000E+00  0.00000000E+00
  0.00000000E+00  0.00000000E+00  0.00000000E+00
  0.00000000E+00  0.00000000E+00  0.00000000E+00
  0.00000000E+00  0.00000000E+00  0.00000000E+00
  0.00000000E+00  0.00000000E+00  0.00000000E+00
  0.00000000E+00  0.00000000E+00  0.00000000E+00
  0.00000000E+00  0.00000000E+00  0.00000000E+00
  0.00000000E+00  0.00000000E+00  0.00000000E+00
  0.00000000E+00  0.00000000E+00  0.00000000E+00
  0.00000000E+00  0.00000000E+00  0.00000000E+00
  0.00000000E+00  0.00000000E+00  0.00000000E+00
  0.00000000E+00  0.00000000E+00  0.00000000E+00
  0.00000000E+00  0.00000000E+00  0.00000000E+00
  0.00000000E+00  0.00000000E+00  0.00000000E+00
  0.00000000E+00  0.00000000E+00  0.00000000E+00
  0.00000000E+00  0.00000000E+00  0.00000000E+00
  0.00000000E+00  0.00000000E+00  0.00000000E+00
  0.00000000E+00  0.00000000E+00  0.00000000E+00
  0.00000000E+00  0.00000000E+00  0.00000000E+00
  0.00000000E+00  0.00000000E+00  0.00000000E+00
  0.00000000E+00  0.00000000E+00  0.00000000E+00
  0.00000000E+00  0.00000000E+00  0.00000000E+00
  0.00000000E+00  0.00000000E+00  0.00000000E+00
  0.00000000E+00  0.00000000E+00  0.00000000E+00
  0.00000000E+00  0.00000000E+00  0.00000000E+00
  0.00000000E+00  0.00000000E+00  0.00000000E+00
  0.00000000E+00  0.00000000E+00  0.00000000E+00
  0.00000000E+00  0.00000000E+00  0.00000000E+00
  0.00000000E+00  0.00000000E+00  0.00000000E+00
  0.00000000E+00  0.00000000E+00  0.00000000E+00
  0.00000000E+00  0.00000000E+00  0.00000000E+00
  0.00000000E+00  0.00000000E+00  0.00000000E+00
  0.00000000E+00  0.00000000E+00  0.00000000E+00
  0.00000000E+00  0.00000000E+00  0.00000000E+00
  0.00000000E+00  0.00000000E+00  0.00000000E+00
  0.00000000E+00  0.00000000E+00  0.00000000E+00
  0.00000000E+00  0.00000000E+00  0.00000000E+00
  0.00000000E+00  0.00000000E+00  0.00000000E+00
  0.00000000E+00  0.00000000E+00  0.00000000E+00
  0.00000000E+00  0.00000000E+00  0.00000000E+00
  0.00000000E+00  0.00000000E+00  0.00000000E+00
  0.00000000E+00  0.00000000E+00  0.00000000E+00
  0.00000000E+00  0.00000000E+00  0.00000000E+00
  0.00000000E+00  0.00000000E+00  0.00000000E+00
  0.00000000E+00  0.00000000E+00  0.00000000E+00
  0.00000000E+00  0.00000000E+00  0.00000000E+00
  0.00000000E+00  0.00000000E+00  0.00000000E+00
  0.00000000E+00  0.00000000E+00  0.00000000E+00
  0.00000000E+00  0.00000000E+00  0.00000000E+00
  0.00000000E+00  0.00000000E+00  0.00000000E+00
  0.00000000E+00  0.00000000E+00  0.00000000E+00
  0.00000000E+00  0.00000000E+00  0.00000000E+00
  0.00000000E+00  0.00000000E+00  0.00000000E+00
  0.00000000E+00  0.00000000E+00  0.00000000E+00
  0.00000000E+00  0.00000000E+00  0.00000000E+00
  0.00000000E+00  0.00000000E+00  0.00000000E+00
  0.00000000E+00  0.00000000E+00  0.00000000E+00
  0.00000000E+00  0.00000000E+00  0.00000000E+00
  0.00000000E+00  0.00000000E+00  0.00000000E+00
  0.00000000E+00  0.00000000E+00  0.00000000E+00
  0.00000000E+00  0.00000000E+00  0.00000000E+00
  0.00000000E+00  0.00000000E+00  0.00000000E+00
  0.00000000E+00  0.00000000E+00  0.00000000E+00
  0.00000000E+00  0.00000000E+00  0.00000000E+00
  0.00000000E+00  0.00000000E+00  0.00000000E+00
  0.00000000E+00  0.00000000E+00  0.00000000E+00
  0.00000000E+00  0.00000000E+00  0.00000000E+00
  0.00000000E+00  0.00000000E+00  0.00000000E+00
  0.00000000E+00  0.00000000E+00  0.00000000E+00
  0.00000000E+00  0.00000000E+00  0.00000000E+00
  0.00000000E+00  0.00000000E+00  0.00000000E+00
  0.00000000E+00  0.00000000E+00  0.00000000E+00
  0.00000000E+00  0.00000000E+00  0.00000000E+00
  0.00000000E+00  0.00000000E+00  0.00000000E+00
  0.00000000E+00  0.00000000E+00  0.00000000E+00
  0.00000000E+00  0.00000000E+00  0.00000000E+00
  0.00000000E+00  0.00000000E+00  0.00000000E+00
  0.00000000E+00  0.00000000E+00  0.00000000E+00
  0.00000000E+00  0.00000000E+00  0.00000000E+00
  0.00000000E+00  0.00000000E+00  0.00000000E+00
  0.00000000E+00  0.00000000E+00  0.00000000E+00
  0.00000000E+00  0.00000000E+00  0.00000000E+00
  0.00000000E+00  0.00000000E+00  0.00000000E+00
  0.00000000E+00  0.00000000E+00  0.00000000E+00
  0.00000000E+00  0.00000000E+00  0.00000000E+00
  0.00000000E+00  0.00000000E+00  0.00000000E+00
  0.00000000E+00  0.00000000E+00  0.00000000E+00
  0.00000000E+00  0.00000000E+00  0.00000000E+00
  0.00000000E+00  0.00000000E+00  0.00000000E+00
  0.00000000E+00  0.00000000E+00  0.00000000E+00
  0.00000000E+00  0.00000000E+00  0.00000000E+00
  0.00000000E+00  0.00000000E+00  0.00000000E+00
  0.00000000E+00  0.00000000E+00  0.00000000E+00
  0.00000000E+00  0.00000000E+00  0.00000000E+00
  0.00000000E+00  0.00000000E+00  0.00000000E+00
  0.00000000E+00  0.00000000E+00  0.00000000E+00
  0.00000000E+00  0.00000000E+00  0.00000000E+00
  0.00000000E+00  0.00000000E+00  0.00000000E+00
  0.00000000E+00  0.00000000E+00  0.00000000E+00
  0.00000000E+00  0.00000000E+00  0.00000000E+00
  0.00000000E+00  0.00000000E+00  0.00000000E+00
  0.00000000E+00  0.00000000E+00  0.00000000E+00
  0.00000000E+00  0.00000000E+00  0.00000000E+00
  0.00000000E+00  0.00000000E+00  0.00000000E+00
  0.00000000E+00  0.00000000E+00  0.00000000E+00
  0.00000000E+00  0.00000000E+00  0.00000000E+00
  0.00000000E+00  0.00000000E+00  0.00000000E+00
  0.00000000E+00  0.00000000E+00  0.00000000E+00
  0.00000000E+00  0.00000000E+00  0.00000000E+00
  0.00000000E+00  0.00000000E+00  0.00000000E+00
  0.00000000E+00  0.00000000E+00  0.00000000E+00
  0.00000000E+00  0.00000000E+00  0.00000000E+00
  0.00000000E+00  0.00000000E+00  0.00000000E+00
  0.00000000E+00  0.00000000E+00  0.00000000E+00
  0.00000000E+00  0.00000000E+00  0.00000000E+00
  0.00000000E+00  0.00000000E+00  0.00000000E+00
  0.00000000E+00  0.00000000E+00  0.00000000E+00
  0.00000000E+00  0.00000000E+00  0.00000000E+00
  0.00000000E+00  0.00000000E+00  0.00000000E+00
  0.00000000E+00  0.00000000E+00  0.00000000E+00
  0.00000000E+00  0.00000000E+00  0.00000000E+00
  0.00000000E+00  0.00000000E+00  0.00000000E+00
  0.00000000E+00  0.00000000E+00  0.00000000E+00
  0.00000000E+00  0.00000000E+00  0.00000000E+00
  0.00000000E+00  0.00000000E+00  0.00000000E+00
  0.00000000E+00  0.00000000E+00  0.00000000E+00
