Sn16 O33                                
   1.00000000000000     
     6.4768679999999996    0.0000000000000000    0.0000000000000000
     0.0000000000000000    6.8194220000000003    0.0000000000000000
     0.0000000000000000    0.0000000000000000   27.2776880000000013
   Sn   O 
    16    33
Selective dynamics
Direct
  0.2500000000000000  0.5000000000000000  0.4375000000000000   F   F   F
  0.7500000000000000  0.5000000000000000  0.4375000000000000   F   F   F
  0.2500000000000000  0.0000000000000000  0.3125000000000000   F   F   F
  0.7500000000000000  0.0000000000000000  0.3125000000000000   F   F   F
  0.0000000000000000  0.5000000000000000  0.3125000000000000   F   F   F
  0.5000000000000000  0.5000000000000000  0.3125000000000000   F   F   F
  0.0000000000000000  0.0000000000000000  0.4375000000000000   F   F   F
  0.5000000000000000  0.0000000000000000  0.4375000000000000   F   F   F
  0.2519704949621921  0.5000000000000000  0.6955600066545693   T   T   T
  0.7480295050378079  0.5000000000000000  0.6955600066545693   T   T   T
  0.2483719766142493 -0.0000000000000000  0.5625718743566817   T   T   T
  0.7516280233857510 -0.0000000000000000  0.5625718743566817   T   T   T
  0.0000000000000000  0.5000000000000000  0.5656155268585428   T   T   T
  0.5000000000000000  0.5000000000000000  0.5651727107262794   T   T   T
  0.0000000000000000 -0.0000000000000000  0.6911450152879257   T   T   T
  0.5000000000000000 -0.0000000000000000  0.6848308913903086   T   T   T
  0.2500000000000000  0.8064400000000020  0.4375000000000000   F   F   F
  0.7500000000000000  0.8064400000000020  0.4375000000000000   F   F   F
  0.2500000000000000  0.3064400000000020  0.3125000000000000   F   F   F
  0.7500000000000000  0.3064400000000020  0.3125000000000000   F   F   F
  0.2500000000000000  0.1935599999999980  0.4375000000000000   F   F   F
  0.7500000000000000  0.1935599999999980  0.4375000000000000   F   F   F
  0.2500000000000000  0.6935599999999980  0.3125000000000000   F   F   F
  0.7500000000000000  0.6935599999999980  0.3125000000000000   F   F   F
  0.0000000000000000  0.5000000000000000  0.4858899999999977   F   F   F
  0.5000000000000000  0.5000000000000000  0.4858899999999977   F   F   F
  0.0000000000000000  0.0000000000000000  0.3608899999999977   F   F   F
  0.5000000000000000  0.0000000000000000  0.3608899999999977   F   F   F
  0.0000000000000000  0.5000000000000000  0.3891100000000023   F   F   F
  0.5000000000000000  0.5000000000000000  0.3891100000000023   F   F   F
  0.0000000000000000  0.0000000000000000  0.2641100000000023   F   F   F
  0.5000000000000000  0.0000000000000000  0.2641100000000023   F   F   F
  0.2555108039119711  0.8112391542861235  0.6938150854992574   T   T   T
  0.7444891960880289  0.8112391542861235  0.6938150854992574   T   T   T
  0.2494578966061687  0.3051119720901288  0.5630708293757342   T   T   T
  0.7505421033938316  0.3051119720901288  0.5630708293757342   T   T   T
  0.2555108039119711  0.1887608457138767  0.6938150854992574   T   T   T
  0.7444891960880289  0.1887608457138767  0.6938150854992574   T   T   T
  0.2494578966061687  0.6948880279098711  0.5630708293757342   T   T   T
  0.7505421033938316  0.6948880279098711  0.5630708293757342   T   T   T
  0.0000000000000000  0.5000000000000000  0.7414240371548606   T   T   T
  0.5000000000000000  0.5000000000000000  0.7411100358565935   T   T   T
  0.0000000000000000 -0.0000000000000000  0.6133867077488485   T   T   T
  0.5000000000000000 -0.0000000000000000  0.6106441954833044   T   T   T
  0.0000000000000000  0.5000000000000000  0.6427077035602812   T   T   T
  0.5000000000000000  0.5000000000000000  0.6417660793716370   T   T   T
  0.0000000000000000 -0.0000000000000000  0.5144137032454548   T   T   T
  0.5000000000000000 -0.0000000000000000  0.5144348507238856   T   T   T
  0.0000000000000000 -0.0000000000000000  0.7695390695556359   T   T   T
 
  0.00000000E+00  0.00000000E+00  0.00000000E+00
  0.00000000E+00  0.00000000E+00  0.00000000E+00
  0.00000000E+00  0.00000000E+00  0.00000000E+00
  0.00000000E+00  0.00000000E+00  0.00000000E+00
  0.00000000E+00  0.00000000E+00  0.00000000E+00
  0.00000000E+00  0.00000000E+00  0.00000000E+00
  0.00000000E+00  0.00000000E+00  0.00000000E+00
  0.00000000E+00  0.00000000E+00  0.00000000E+00
  0.00000000E+00  0.00000000E+00  0.00000000E+00
  0.00000000E+00  0.00000000E+00  0.00000000E+00
  0.00000000E+00  0.00000000E+00  0.00000000E+00
  0.00000000E+00  0.00000000E+00  0.00000000E+00
  0.00000000E+00  0.00000000E+00  0.00000000E+00
  0.00000000E+00  0.00000000E+00  0.00000000E+00
  0.00000000E+00  0.00000000E+00  0.00000000E+00
  0.00000000E+00  0.00000000E+00  0.00000000E+00
  0.00000000E+00  0.00000000E+00  0.00000000E+00
  0.00000000E+00  0.00000000E+00  0.00000000E+00
  0.00000000E+00  0.00000000E+00  0.00000000E+00
  0.00000000E+00  0.00000000E+00  0.00000000E+00
  0.00000000E+00  0.00000000E+00  0.00000000E+00
  0.00000000E+00  0.00000000E+00  0.00000000E+00
  0.00000000E+00  0.00000000E+00  0.00000000E+00
  0.00000000E+00  0.00000000E+00  0.00000000E+00
  0.00000000E+00  0.00000000E+00  0.00000000E+00
  0.00000000E+00  0.00000000E+00  0.00000000E+00
  0.00000000E+00  0.00000000E+00  0.00000000E+00
  0.00000000E+00  0.00000000E+00  0.00000000E+00
  0.00000000E+00  0.00000000E+00  0.00000000E+00
  0.00000000E+00  0.00000000E+00  0.00000000E+00
  0.00000000E+00  0.00000000E+00  0.00000000E+00
  0.00000000E+00  0.00000000E+00  0.00000000E+00
  0.00000000E+00  0.00000000E+00  0.00000000E+00
  0.00000000E+00  0.00000000E+00  0.00000000E+00
  0.00000000E+00  0.00000000E+00  0.00000000E+00
  0.00000000E+00  0.00000000E+00  0.00000000E+00
  0.00000000E+00  0.00000000E+00  0.00000000E+00
  0.00000000E+00  0.00000000E+00  0.00000000E+00
  0.00000000E+00  0.00000000E+00  0.00000000E+00
  0.00000000E+00  0.00000000E+00  0.00000000E+00
  0.00000000E+00  0.00000000E+00  0.00000000E+00
  0.00000000E+00  0.00000000E+00  0.00000000E+00
  0.00000000E+00  0.00000000E+00  0.00000000E+00
  0.00000000E+00  0.00000000E+00  0.00000000E+00
  0.00000000E+00  0.00000000E+00  0.00000000E+00
  0.00000000E+00  0.00000000E+00  0.00000000E+00
  0.00000000E+00  0.00000000E+00  0.00000000E+00
  0.00000000E+00  0.00000000E+00  0.00000000E+00
  0.00000000E+00  0.00000000E+00  0.00000000E+00
