Sn16 O33
1.0
6.476868 0.000000 0.000000
0.000000 6.819422 0.000000
0.000000 0.000000 27.277688
Sn O
16 33
Selective dynamics
direct
0.250000 0.500000 0.437500 F F F Sn
0.750000 0.500000 0.437500 F F F Sn
0.250000 0.000000 0.312500 F F F Sn
0.750000 0.000000 0.312500 F F F Sn
0.000000 0.500000 0.312500 F F F Sn
0.500000 0.500000 0.312500 F F F Sn
0.000000 0.000000 0.437500 F F F Sn
0.500000 0.000000 0.437500 F F F Sn
0.250000 0.500000 0.687500 T T T Sn
0.750000 0.500000 0.687500 T T T Sn
0.250000 0.000000 0.562500 T T T Sn
0.750000 0.000000 0.562500 T T T Sn
0.000000 0.500000 0.562500 T T T Sn
0.500000 0.500000 0.562500 T T T Sn
0.000000 0.000000 0.687500 T T T Sn
0.500000 0.000000 0.687500 T T T Sn
0.250000 0.806440 0.437500 F F F O
0.750000 0.806440 0.437500 F F F O
0.250000 0.306440 0.312500 F F F O
0.750000 0.306440 0.312500 F F F O
0.250000 0.193560 0.437500 F F F O
0.750000 0.193560 0.437500 F F F O
0.250000 0.693560 0.312500 F F F O
0.750000 0.693560 0.312500 F F F O
0.000000 0.500000 0.485890 F F F O
0.500000 0.500000 0.485890 F F F O
0.000000 0.000000 0.360890 F F F O
0.500000 0.000000 0.360890 F F F O
0.000000 0.500000 0.389110 F F F O
0.500000 0.500000 0.389110 F F F O
0.000000 0.000000 0.264110 F F F O
0.500000 0.000000 0.264110 F F F O
0.250000 0.806440 0.687500 T T T O
0.750000 0.806440 0.687500 T T T O
0.250000 0.306440 0.562500 T T T O
0.750000 0.306440 0.562500 T T T O
0.250000 0.193560 0.687500 T T T O
0.750000 0.193560 0.687500 T T T O
0.250000 0.693560 0.562500 T T T O
0.750000 0.693560 0.562500 T T T O
0.000000 0.500000 0.735890 T T T O
0.500000 0.500000 0.735890 T T T O
0.000000 0.000000 0.610890 T T T O
0.500000 0.000000 0.610890 T T T O
0.000000 0.500000 0.639110 T T T O
0.500000 0.500000 0.639110 T T T O
0.000000 0.000000 0.514110 T T T O
0.500000 0.000000 0.514110 T T T O
0.000000 0.000000 0.753488 T T T O
