P1 H2 Ir16 O36                          
   1.00000000000000     
     6.3822810800000003    0.0000000000000000    0.0000000000000004
     0.0000000000000010    6.4172767899999998    0.0000000000000004
     0.0000000000000000    0.0000000000000000   32.0863839299999967
   P    H    Ir   O 
     1     2    16    36
Selective dynamics
Direct
  0.2657890326968843  0.0508748963043364  0.4361721568625713   T   T   T
  0.2013498124606693  0.7986004778784803  0.4801947738356810   T   T   T
  0.3896856022551633  0.3663867695929947  0.4296612005217353   T   T   T
  0.2500000000000000  0.5000000000000000  0.1499999999999986   F   F   F
  0.7500000000000000  0.5000000000000000  0.1499999999999986   F   F   F
  0.2500000000000000  0.0000000000000000  0.0499999999999972   F   F   F
  0.7500000000000000  0.0000000000000000  0.0499999999999972   F   F   F
  0.0000000000000000  0.5000000000000000  0.0499999999999972   F   F   F
  0.5000000000000000  0.5000000000000000  0.0499999999999972   F   F   F
  0.0000000000000000  0.0000000000000000  0.1499999999999986   F   F   F
  0.5000000000000000  0.0000000000000000  0.1499999999999986   F   F   F
  0.2492303383200902  0.4996595464947383  0.3493833558928230   T   T   T
  0.7512922307649366  0.4978822098866347  0.3506514376032091   T   T   T
  0.2501599081799324 -0.0002198323828941  0.2501583722081922   T   T   T
  0.7502208199433892 -0.0004821811076966  0.2497121235506934   T   T   T
 -0.0001538709753557  0.4998215083753141  0.2500120822117141   T   T   T
  0.5001313652741333  0.4996886699528306  0.2501224944616866   T   T   T
  0.0049842148133444 -0.0005410206678912  0.3501468384788315   T   T   T
  0.5006765625355570  0.9976754779913404  0.3495797137097256   T   T   T
  0.0000000000000000  0.5000000000000000  0.1117544100000032   F   F   F
  0.5000000000000000  0.5000000000000000  0.1117544100000032   F   F   F
  0.0000000000000000  0.0000000000000000  0.0117544100000018   F   F   F
  0.5000000000000000  0.0000000000000000  0.0117544100000018   F   F   F
  0.2500000000000000  0.8087720600000026  0.1499999999999986   F   F   F
  0.7500000000000000  0.8087720600000026  0.1499999999999986   F   F   F
  0.2500000000000000  0.3087720600000026  0.0499999999999972   F   F   F
  0.7500000000000000  0.3087720600000026  0.0499999999999972   F   F   F
  0.0000000000000000  0.5000000000000000  0.1882455900000011   F   F   F
  0.5000000000000000  0.5000000000000000  0.1882455900000011   F   F   F
  0.0000000000000000  0.0000000000000000  0.0882455899999997   F   F   F
  0.5000000000000000  0.0000000000000000  0.0882455899999997   F   F   F
  0.2500000000000000  0.1912279399999974  0.1499999999999986   F   F   F
  0.7500000000000000  0.1912279399999974  0.1499999999999986   F   F   F
  0.2500000000000000  0.6912279399999974  0.0499999999999972   F   F   F
  0.7500000000000000  0.6912279399999974  0.0499999999999972   F   F   F
  0.9983673505534683  0.5001347637072043  0.3113932732974923   T   T   T
  0.5018189668131000  0.4996999386742202  0.3116065933576582   T   T   T
  0.0009457955579564 -0.0001332398514551  0.2116975670370747   T   T   T
  0.4993644709949528  0.0001520513223332  0.2116660945312929   T   T   T
  0.2517394239543970  0.8064643147299833  0.3476331176888177   T   T   T
  0.7521003294183253  0.8066916370827023  0.3516785581565502   T   T   T
  0.2499294578809087  0.3084414816462958  0.2500060930360244   T   T   T
  0.7501500503172343  0.3080618183581632  0.2496948185592019   T   T   T
  0.0019839089406244  0.5007719811835791  0.3867495240782418   T   T   T
  0.4963943878137244  0.4912514677762537  0.3875212961756360   T   T   T
  0.9969235752223464  0.9980167392590370  0.2881876974862451   T   T   T
  0.5037593072002901  0.0003321004735957  0.2879003607876760   T   T   T
  0.2522787656621959  0.1916257967980544  0.3477540714108081   T   T   T
  0.7519215208141342  0.1894968443349644  0.3514348911138931   T   T   T
  0.2502687770086642  0.6911365263353341  0.2499269808050727   T   T   T
  0.7498347120553721  0.6912033254288942  0.2495886262605279   T   T   T
  0.2559487812932799  0.9420151468361271  0.4797307661787066   T   T   T
  0.0542312443518874  0.0068416682829978  0.4137060254883159   T   T   T
  0.2950623221792000  0.2855282338190581  0.4490556345464848   T   T   T
  0.4668818311074052  0.9803179233346508  0.4126284479986481   T   T   T
 
  0.00000000E+00  0.00000000E+00  0.00000000E+00
  0.00000000E+00  0.00000000E+00  0.00000000E+00
  0.00000000E+00  0.00000000E+00  0.00000000E+00
  0.00000000E+00  0.00000000E+00  0.00000000E+00
  0.00000000E+00  0.00000000E+00  0.00000000E+00
  0.00000000E+00  0.00000000E+00  0.00000000E+00
  0.00000000E+00  0.00000000E+00  0.00000000E+00
  0.00000000E+00  0.00000000E+00  0.00000000E+00
  0.00000000E+00  0.00000000E+00  0.00000000E+00
  0.00000000E+00  0.00000000E+00  0.00000000E+00
  0.00000000E+00  0.00000000E+00  0.00000000E+00
  0.00000000E+00  0.00000000E+00  0.00000000E+00
  0.00000000E+00  0.00000000E+00  0.00000000E+00
  0.00000000E+00  0.00000000E+00  0.00000000E+00
  0.00000000E+00  0.00000000E+00  0.00000000E+00
  0.00000000E+00  0.00000000E+00  0.00000000E+00
  0.00000000E+00  0.00000000E+00  0.00000000E+00
  0.00000000E+00  0.00000000E+00  0.00000000E+00
  0.00000000E+00  0.00000000E+00  0.00000000E+00
  0.00000000E+00  0.00000000E+00  0.00000000E+00
  0.00000000E+00  0.00000000E+00  0.00000000E+00
  0.00000000E+00  0.00000000E+00  0.00000000E+00
  0.00000000E+00  0.00000000E+00  0.00000000E+00
  0.00000000E+00  0.00000000E+00  0.00000000E+00
  0.00000000E+00  0.00000000E+00  0.00000000E+00
  0.00000000E+00  0.00000000E+00  0.00000000E+00
  0.00000000E+00  0.00000000E+00  0.00000000E+00
  0.00000000E+00  0.00000000E+00  0.00000000E+00
  0.00000000E+00  0.00000000E+00  0.00000000E+00
  0.00000000E+00  0.00000000E+00  0.00000000E+00
  0.00000000E+00  0.00000000E+00  0.00000000E+00
  0.00000000E+00  0.00000000E+00  0.00000000E+00
  0.00000000E+00  0.00000000E+00  0.00000000E+00
  0.00000000E+00  0.00000000E+00  0.00000000E+00
  0.00000000E+00  0.00000000E+00  0.00000000E+00
  0.00000000E+00  0.00000000E+00  0.00000000E+00
  0.00000000E+00  0.00000000E+00  0.00000000E+00
  0.00000000E+00  0.00000000E+00  0.00000000E+00
  0.00000000E+00  0.00000000E+00  0.00000000E+00
  0.00000000E+00  0.00000000E+00  0.00000000E+00
  0.00000000E+00  0.00000000E+00  0.00000000E+00
  0.00000000E+00  0.00000000E+00  0.00000000E+00
  0.00000000E+00  0.00000000E+00  0.00000000E+00
  0.00000000E+00  0.00000000E+00  0.00000000E+00
  0.00000000E+00  0.00000000E+00  0.00000000E+00
  0.00000000E+00  0.00000000E+00  0.00000000E+00
  0.00000000E+00  0.00000000E+00  0.00000000E+00
  0.00000000E+00  0.00000000E+00  0.00000000E+00
  0.00000000E+00  0.00000000E+00  0.00000000E+00
  0.00000000E+00  0.00000000E+00  0.00000000E+00
  0.00000000E+00  0.00000000E+00  0.00000000E+00
  0.00000000E+00  0.00000000E+00  0.00000000E+00
  0.00000000E+00  0.00000000E+00  0.00000000E+00
  0.00000000E+00  0.00000000E+00  0.00000000E+00
  0.00000000E+00  0.00000000E+00  0.00000000E+00
