Ir16 O34                                
   1.00000000000000     
     6.3822810800000003    0.0000000000000000    0.0000000000000004
     0.0000000000000010    6.4172767899999998    0.0000000000000004
     0.0000000000000000    0.0000000000000000   32.0863839299999967
   Ir   O 
    16    34
Selective dynamics
Direct
  0.2500000000000000  0.5000000000000000  0.1499999999999986   F   F   F
  0.7500000000000000  0.5000000000000000  0.1499999999999986   F   F   F
  0.2500000000000000  0.0000000000000000  0.0499999999999972   F   F   F
  0.7500000000000000  0.0000000000000000  0.0499999999999972   F   F   F
  0.0000000000000000  0.5000000000000000  0.0499999999999972   F   F   F
  0.5000000000000000  0.5000000000000000  0.0499999999999972   F   F   F
  0.0000000000000000  0.0000000000000000  0.1499999999999986   F   F   F
  0.5000000000000000  0.0000000000000000  0.1499999999999986   F   F   F
  0.2499638546778697  0.4999738177132984  0.3503367649182911   T   T   T
  0.7500355718931052  0.4999757860600825  0.3503312715733312   T   T   T
  0.2500234460927835  0.0000127920694084  0.2504491684467208   T   T   T
  0.7499849973810095  0.0000126313527423  0.2504495675269334   T   T   T
  0.0000086838157969  0.5000118388943533  0.2503230890127660   T   T   T
  0.5000013734753384  0.5000107626170457  0.2503237062200369   T   T   T
  0.9999835497626340  0.9999669341872639  0.3532596384980320   T   T   T
  0.4999890822881632  0.9999707066682463  0.3532893790465129   T   T   T
  0.0000000000000000  0.5000000000000000  0.1117544100000032   F   F   F
  0.5000000000000000  0.5000000000000000  0.1117544100000032   F   F   F
  0.0000000000000000  0.0000000000000000  0.0117544100000018   F   F   F
  0.5000000000000000  0.0000000000000000  0.0117544100000018   F   F   F
  0.2500000000000000  0.8087720600000026  0.1499999999999986   F   F   F
  0.7500000000000000  0.8087720600000026  0.1499999999999986   F   F   F
  0.2500000000000000  0.3087720600000026  0.0499999999999972   F   F   F
  0.7500000000000000  0.3087720600000026  0.0499999999999972   F   F   F
  0.0000000000000000  0.5000000000000000  0.1882455900000011   F   F   F
  0.5000000000000000  0.5000000000000000  0.1882455900000011   F   F   F
  0.0000000000000000  0.0000000000000000  0.0882455899999997   F   F   F
  0.5000000000000000  0.0000000000000000  0.0882455899999997   F   F   F
  0.2500000000000000  0.1912279399999974  0.1499999999999986   F   F   F
  0.7500000000000000  0.1912279399999974  0.1499999999999986   F   F   F
  0.2500000000000000  0.6912279399999974  0.0499999999999972   F   F   F
  0.7500000000000000  0.6912279399999974  0.0499999999999972   F   F   F
 -0.0000070769624120  0.4999874989653511  0.3116193378907197   T   T   T
  0.5000106695317332  0.4999800251036256  0.3116185062138404   T   T   T
  0.0000057143421008  0.0000082915485941  0.2119860342889073   T   T   T
  0.5000029049609481  0.0000096269669046  0.2119941134398519   T   T   T
  0.2500017481526978  0.8092301937453918  0.3492567257639390   T   T   T
  0.7499745731483431  0.8092382537347710  0.3492425056722463   T   T   T
  0.2500100434618237  0.3081200784304420  0.2500952508451253   T   T   T
  0.7499989536928511  0.3081202490507515  0.2500954181683477   T   T   T
  0.9999866509981913  0.4999892192290610  0.3867868599397558   T   T   T
  0.5000164564350165  0.4999667932788966  0.3867902561573144   T   T   T
  0.0000059628692527  0.0000182946576622  0.2890392465436929   T   T   T
  0.4999959725952880  0.0000201729797504  0.2890531021480290   T   T   T
  0.2500014684461861  0.1907145446062217  0.3492673036988802   T   T   T
  0.7499780991521441  0.1907105315832383  0.3492589263546372   T   T   T
  0.2500108560620651  0.6919057568737079  0.2500958246550514   T   T   T
  0.7499991727385729  0.6919042960227904  0.2500962808580622   T   T   T
  0.9999053433276290  0.9998753329426382  0.4091232709926091   T   T   T
  0.5000257586369778  0.9999039147732871  0.4091461213435450   T   T   T
 
  0.00000000E+00  0.00000000E+00  0.00000000E+00
  0.00000000E+00  0.00000000E+00  0.00000000E+00
  0.00000000E+00  0.00000000E+00  0.00000000E+00
  0.00000000E+00  0.00000000E+00  0.00000000E+00
  0.00000000E+00  0.00000000E+00  0.00000000E+00
  0.00000000E+00  0.00000000E+00  0.00000000E+00
  0.00000000E+00  0.00000000E+00  0.00000000E+00
  0.00000000E+00  0.00000000E+00  0.00000000E+00
  0.00000000E+00  0.00000000E+00  0.00000000E+00
  0.00000000E+00  0.00000000E+00  0.00000000E+00
  0.00000000E+00  0.00000000E+00  0.00000000E+00
  0.00000000E+00  0.00000000E+00  0.00000000E+00
  0.00000000E+00  0.00000000E+00  0.00000000E+00
  0.00000000E+00  0.00000000E+00  0.00000000E+00
  0.00000000E+00  0.00000000E+00  0.00000000E+00
  0.00000000E+00  0.00000000E+00  0.00000000E+00
  0.00000000E+00  0.00000000E+00  0.00000000E+00
  0.00000000E+00  0.00000000E+00  0.00000000E+00
  0.00000000E+00  0.00000000E+00  0.00000000E+00
  0.00000000E+00  0.00000000E+00  0.00000000E+00
  0.00000000E+00  0.00000000E+00  0.00000000E+00
  0.00000000E+00  0.00000000E+00  0.00000000E+00
  0.00000000E+00  0.00000000E+00  0.00000000E+00
  0.00000000E+00  0.00000000E+00  0.00000000E+00
  0.00000000E+00  0.00000000E+00  0.00000000E+00
  0.00000000E+00  0.00000000E+00  0.00000000E+00
  0.00000000E+00  0.00000000E+00  0.00000000E+00
  0.00000000E+00  0.00000000E+00  0.00000000E+00
  0.00000000E+00  0.00000000E+00  0.00000000E+00
  0.00000000E+00  0.00000000E+00  0.00000000E+00
  0.00000000E+00  0.00000000E+00  0.00000000E+00
  0.00000000E+00  0.00000000E+00  0.00000000E+00
  0.00000000E+00  0.00000000E+00  0.00000000E+00
  0.00000000E+00  0.00000000E+00  0.00000000E+00
  0.00000000E+00  0.00000000E+00  0.00000000E+00
  0.00000000E+00  0.00000000E+00  0.00000000E+00
  0.00000000E+00  0.00000000E+00  0.00000000E+00
  0.00000000E+00  0.00000000E+00  0.00000000E+00
  0.00000000E+00  0.00000000E+00  0.00000000E+00
  0.00000000E+00  0.00000000E+00  0.00000000E+00
  0.00000000E+00  0.00000000E+00  0.00000000E+00
  0.00000000E+00  0.00000000E+00  0.00000000E+00
  0.00000000E+00  0.00000000E+00  0.00000000E+00
  0.00000000E+00  0.00000000E+00  0.00000000E+00
  0.00000000E+00  0.00000000E+00  0.00000000E+00
  0.00000000E+00  0.00000000E+00  0.00000000E+00
  0.00000000E+00  0.00000000E+00  0.00000000E+00
  0.00000000E+00  0.00000000E+00  0.00000000E+00
  0.00000000E+00  0.00000000E+00  0.00000000E+00
  0.00000000E+00  0.00000000E+00  0.00000000E+00
