H2 Ir16 O36                             
   1.00000000000000     
     6.3822810800000003    0.0000000000000000    0.0000000000000004
     0.0000000000000010    6.4172767899999998    0.0000000000000004
     0.0000000000000000    0.0000000000000000   32.0863839299999967
   H    Ir   O 
     2    16    36
Selective dynamics
Direct
  0.7554979845968675  0.9451063379969785  0.4301550732093350   T   T   T
  0.2554099887642346  0.9452839799961354  0.4301312275906225   T   T   T
  0.2500000000000000  0.5000000000000000  0.1499999999999986   F   F   F
  0.7500000000000000  0.5000000000000000  0.1499999999999986   F   F   F
  0.2500000000000000  0.0000000000000000  0.0499999999999972   F   F   F
  0.7500000000000000  0.0000000000000000  0.0499999999999972   F   F   F
  0.0000000000000000  0.5000000000000000  0.0499999999999972   F   F   F
  0.5000000000000000  0.5000000000000000  0.0499999999999972   F   F   F
  0.0000000000000000  0.0000000000000000  0.1499999999999986   F   F   F
  0.5000000000000000  0.0000000000000000  0.1499999999999986   F   F   F
  0.2560822550700890  0.5054903729901377  0.3502140544300105   T   T   T
  0.7560859570786094  0.5054935405946365  0.3502118345410417   T   T   T
  0.2528378121327982  0.0021157099237165  0.2498082751886642   T   T   T
  0.7528064623384122  0.0021146762261266  0.2498084198795542   T   T   T
  0.0029311699664695  0.5023080714530020  0.2501651770272419   T   T   T
  0.5029255706638311  0.5023150841932179  0.2501643892919853   T   T   T
  0.0056150053323120  0.0059851624642650  0.3506875144183199   T   T   T
  0.5056210170853915  0.0060055336032108  0.3506795271760507   T   T   T
  0.0000000000000000  0.5000000000000000  0.1117544100000032   F   F   F
  0.5000000000000000  0.5000000000000000  0.1117544100000032   F   F   F
  0.0000000000000000  0.0000000000000000  0.0117544100000018   F   F   F
  0.5000000000000000  0.0000000000000000  0.0117544100000018   F   F   F
  0.2500000000000000  0.8087720600000026  0.1499999999999986   F   F   F
  0.7500000000000000  0.8087720600000026  0.1499999999999986   F   F   F
  0.2500000000000000  0.3087720600000026  0.0499999999999972   F   F   F
  0.7500000000000000  0.3087720600000026  0.0499999999999972   F   F   F
  0.0000000000000000  0.5000000000000000  0.1882455900000011   F   F   F
  0.5000000000000000  0.5000000000000000  0.1882455900000011   F   F   F
  0.0000000000000000  0.0000000000000000  0.0882455899999997   F   F   F
  0.5000000000000000  0.0000000000000000  0.0882455899999997   F   F   F
  0.2500000000000000  0.1912279399999974  0.1499999999999986   F   F   F
  0.7500000000000000  0.1912279399999974  0.1499999999999986   F   F   F
  0.2500000000000000  0.6912279399999974  0.0499999999999972   F   F   F
  0.7500000000000000  0.6912279399999974  0.0499999999999972   F   F   F
  0.0060820102399268  0.5044925932920782  0.3115604354580742   T   T   T
  0.5060081470393629  0.5044923766813085  0.3115591146910003   T   T   T
  0.0022014711029673  0.0016034672291603  0.2115906289634204   T   T   T
  0.5021667413701122  0.0016005232069739  0.2115753650402378   T   T   T
  0.2535921488740381  0.8136774146711350  0.3495814762734404   T   T   T
  0.7536053478682767  0.8136663064103574  0.3495784625266357   T   T   T
  0.2528475463019197  0.3107875504988126  0.2500107458113199   T   T   T
  0.7527153165703193  0.3107892267980629  0.2500100711352296   T   T   T
  0.0059021444135482  0.5041189187547244  0.3867804714396338   T   T   T
  0.5058753006486418  0.5041356151011035  0.3867822514581539   T   T   T
  0.0034489383208825  0.0034326285030924  0.2879922021158158   T   T   T
  0.5034056438652202  0.0034361924190560  0.2879773715061405   T   T   T
  0.2588303337574383  0.1970157849358125  0.3497789075093063   T   T   T
  0.7588271833507607  0.1970222201942100  0.3497776402080005   T   T   T
  0.2531550603714383  0.6937771788471935  0.2496586078506020   T   T   T
  0.7530276151465278  0.6937780175289500  0.2496569739753398   T   T   T
  0.0320481174771465  0.0172309680664129  0.4114178694411058   T   T   T
  0.9015375203996624  0.8950192701986057  0.4374883062849005   T   T   T
  0.5321145585308464  0.0171793419361824  0.4114212782386841   T   T   T
  0.4014312551634858  0.8952235663241074  0.4375023654955417   T   T   T
 
  0.00000000E+00  0.00000000E+00  0.00000000E+00
  0.00000000E+00  0.00000000E+00  0.00000000E+00
  0.00000000E+00  0.00000000E+00  0.00000000E+00
  0.00000000E+00  0.00000000E+00  0.00000000E+00
  0.00000000E+00  0.00000000E+00  0.00000000E+00
  0.00000000E+00  0.00000000E+00  0.00000000E+00
  0.00000000E+00  0.00000000E+00  0.00000000E+00
  0.00000000E+00  0.00000000E+00  0.00000000E+00
  0.00000000E+00  0.00000000E+00  0.00000000E+00
  0.00000000E+00  0.00000000E+00  0.00000000E+00
  0.00000000E+00  0.00000000E+00  0.00000000E+00
  0.00000000E+00  0.00000000E+00  0.00000000E+00
  0.00000000E+00  0.00000000E+00  0.00000000E+00
  0.00000000E+00  0.00000000E+00  0.00000000E+00
  0.00000000E+00  0.00000000E+00  0.00000000E+00
  0.00000000E+00  0.00000000E+00  0.00000000E+00
  0.00000000E+00  0.00000000E+00  0.00000000E+00
  0.00000000E+00  0.00000000E+00  0.00000000E+00
  0.00000000E+00  0.00000000E+00  0.00000000E+00
  0.00000000E+00  0.00000000E+00  0.00000000E+00
  0.00000000E+00  0.00000000E+00  0.00000000E+00
  0.00000000E+00  0.00000000E+00  0.00000000E+00
  0.00000000E+00  0.00000000E+00  0.00000000E+00
  0.00000000E+00  0.00000000E+00  0.00000000E+00
  0.00000000E+00  0.00000000E+00  0.00000000E+00
  0.00000000E+00  0.00000000E+00  0.00000000E+00
  0.00000000E+00  0.00000000E+00  0.00000000E+00
  0.00000000E+00  0.00000000E+00  0.00000000E+00
  0.00000000E+00  0.00000000E+00  0.00000000E+00
  0.00000000E+00  0.00000000E+00  0.00000000E+00
  0.00000000E+00  0.00000000E+00  0.00000000E+00
  0.00000000E+00  0.00000000E+00  0.00000000E+00
  0.00000000E+00  0.00000000E+00  0.00000000E+00
  0.00000000E+00  0.00000000E+00  0.00000000E+00
  0.00000000E+00  0.00000000E+00  0.00000000E+00
  0.00000000E+00  0.00000000E+00  0.00000000E+00
  0.00000000E+00  0.00000000E+00  0.00000000E+00
  0.00000000E+00  0.00000000E+00  0.00000000E+00
  0.00000000E+00  0.00000000E+00  0.00000000E+00
  0.00000000E+00  0.00000000E+00  0.00000000E+00
  0.00000000E+00  0.00000000E+00  0.00000000E+00
  0.00000000E+00  0.00000000E+00  0.00000000E+00
  0.00000000E+00  0.00000000E+00  0.00000000E+00
  0.00000000E+00  0.00000000E+00  0.00000000E+00
  0.00000000E+00  0.00000000E+00  0.00000000E+00
  0.00000000E+00  0.00000000E+00  0.00000000E+00
  0.00000000E+00  0.00000000E+00  0.00000000E+00
  0.00000000E+00  0.00000000E+00  0.00000000E+00
  0.00000000E+00  0.00000000E+00  0.00000000E+00
  0.00000000E+00  0.00000000E+00  0.00000000E+00
  0.00000000E+00  0.00000000E+00  0.00000000E+00
  0.00000000E+00  0.00000000E+00  0.00000000E+00
  0.00000000E+00  0.00000000E+00  0.00000000E+00
  0.00000000E+00  0.00000000E+00  0.00000000E+00
