P1 H1 Ir16 O36                          
   1.00000000000000     
     6.3822810800000003    0.0000000000000000    0.0000000000000004
     0.0000000000000010    6.4172767899999998    0.0000000000000004
     0.0000000000000000    0.0000000000000000   32.0863839299999967
   P    H    Ir   O 
     1     1    16    36
Selective dynamics
Direct
  0.2520920461551320  0.9830980144586766  0.4379264584077884   T   T   T
  0.2606344742517478  0.3102268586044487  0.4600445850730489   T   T   T
  0.2500000000000000  0.5000000000000000  0.1499999999999986   F   F   F
  0.7500000000000000  0.5000000000000000  0.1499999999999986   F   F   F
  0.2500000000000000  0.0000000000000000  0.0499999999999972   F   F   F
  0.7500000000000000  0.0000000000000000  0.0499999999999972   F   F   F
  0.0000000000000000  0.5000000000000000  0.0499999999999972   F   F   F
  0.5000000000000000  0.5000000000000000  0.0499999999999972   F   F   F
  0.0000000000000000  0.0000000000000000  0.1499999999999986   F   F   F
  0.5000000000000000  0.0000000000000000  0.1499999999999986   F   F   F
  0.2507753767071201  0.4992264462157809  0.3494887505758638   T   T   T
  0.7508326003512262  0.4995939645520002  0.3505699571739961   T   T   T
  0.2503481914571102 -0.0006207189363666  0.2502250361168462   T   T   T
  0.7503656180445095 -0.0003407296339524  0.2497142139556924   T   T   T
  0.0003232143938329  0.4995474608288481  0.2499985059022959   T   T   T
  0.5004155927249114  0.4995398077673058  0.2500037629555899   T   T   T
  0.0031873986842488 -0.0004897856155265  0.3501248417588532   T   T   T
  0.4988009404400112 -0.0005203302241701  0.3500592306853071   T   T   T
  0.0000000000000000  0.5000000000000000  0.1117544100000032   F   F   F
  0.5000000000000000  0.5000000000000000  0.1117544100000032   F   F   F
  0.0000000000000000  0.0000000000000000  0.0117544100000018   F   F   F
  0.5000000000000000  0.0000000000000000  0.0117544100000018   F   F   F
  0.2500000000000000  0.8087720600000026  0.1499999999999986   F   F   F
  0.7500000000000000  0.8087720600000026  0.1499999999999986   F   F   F
  0.2500000000000000  0.3087720600000026  0.0499999999999972   F   F   F
  0.7500000000000000  0.3087720600000026  0.0499999999999972   F   F   F
  0.0000000000000000  0.5000000000000000  0.1882455900000011   F   F   F
  0.5000000000000000  0.5000000000000000  0.1882455900000011   F   F   F
  0.0000000000000000  0.0000000000000000  0.0882455899999997   F   F   F
  0.5000000000000000  0.0000000000000000  0.0882455899999997   F   F   F
  0.2500000000000000  0.1912279399999974  0.1499999999999986   F   F   F
  0.7500000000000000  0.1912279399999974  0.1499999999999986   F   F   F
  0.2500000000000000  0.6912279399999974  0.0499999999999972   F   F   F
  0.7500000000000000  0.6912279399999974  0.0499999999999972   F   F   F
 -0.0006910193990365  0.5009093081037176  0.3113318700682494   T   T   T
  0.5021760593197749  0.5008905401306782  0.3113376577843364   T   T   T
  0.0010263031764531  0.0007042045296879  0.2117305005204896   T   T   T
  0.4995803882977589  0.0006919788716800  0.2117292772287893   T   T   T
  0.2509591803329781  0.8072000402569910  0.3481295986978743   T   T   T
  0.7509244452672345  0.8088116147439750  0.3517414521556406   T   T   T
  0.2503530778697190  0.3081478400906322  0.2498846866745686   T   T   T
  0.7503802881213892  0.3080943813417260  0.2496515192460536   T   T   T
  0.0033261204617980  0.4961936286595021  0.3864187334374289   T   T   T
  0.4982451886043415  0.4959192377194958  0.3864332123624246   T   T   T
  0.9967945653844339  0.9963705218418432  0.2882210690030564   T   T   T
  0.5040556110836371 -0.0035938323311460  0.2881736293999935   T   T   T
  0.2509789096826143  0.1918018605502355  0.3458178385212456   T   T   T
  0.7509192315910177  0.1901525664861305  0.3505271484088037   T   T   T
  0.2503561498611387  0.6907034610576184  0.2496005545632027   T   T   T
  0.7503722483975650  0.6908125311137732  0.2492914575549928   T   T   T
  0.2528545873734005  0.1670248755114162  0.4705258513523292   T   T   T
  0.2510453938158226  0.7759417273843487  0.4583735511776816   T   T   T
  0.0435907398596353  0.0191186422648712  0.4108851559382423   T   T   T
  0.4602939563876687  0.0187369765417509  0.4108430051512543   T   T   T
 
  0.00000000E+00  0.00000000E+00  0.00000000E+00
  0.00000000E+00  0.00000000E+00  0.00000000E+00
  0.00000000E+00  0.00000000E+00  0.00000000E+00
  0.00000000E+00  0.00000000E+00  0.00000000E+00
  0.00000000E+00  0.00000000E+00  0.00000000E+00
  0.00000000E+00  0.00000000E+00  0.00000000E+00
  0.00000000E+00  0.00000000E+00  0.00000000E+00
  0.00000000E+00  0.00000000E+00  0.00000000E+00
  0.00000000E+00  0.00000000E+00  0.00000000E+00
  0.00000000E+00  0.00000000E+00  0.00000000E+00
  0.00000000E+00  0.00000000E+00  0.00000000E+00
  0.00000000E+00  0.00000000E+00  0.00000000E+00
  0.00000000E+00  0.00000000E+00  0.00000000E+00
  0.00000000E+00  0.00000000E+00  0.00000000E+00
  0.00000000E+00  0.00000000E+00  0.00000000E+00
  0.00000000E+00  0.00000000E+00  0.00000000E+00
  0.00000000E+00  0.00000000E+00  0.00000000E+00
  0.00000000E+00  0.00000000E+00  0.00000000E+00
  0.00000000E+00  0.00000000E+00  0.00000000E+00
  0.00000000E+00  0.00000000E+00  0.00000000E+00
  0.00000000E+00  0.00000000E+00  0.00000000E+00
  0.00000000E+00  0.00000000E+00  0.00000000E+00
  0.00000000E+00  0.00000000E+00  0.00000000E+00
  0.00000000E+00  0.00000000E+00  0.00000000E+00
  0.00000000E+00  0.00000000E+00  0.00000000E+00
  0.00000000E+00  0.00000000E+00  0.00000000E+00
  0.00000000E+00  0.00000000E+00  0.00000000E+00
  0.00000000E+00  0.00000000E+00  0.00000000E+00
  0.00000000E+00  0.00000000E+00  0.00000000E+00
  0.00000000E+00  0.00000000E+00  0.00000000E+00
  0.00000000E+00  0.00000000E+00  0.00000000E+00
  0.00000000E+00  0.00000000E+00  0.00000000E+00
  0.00000000E+00  0.00000000E+00  0.00000000E+00
  0.00000000E+00  0.00000000E+00  0.00000000E+00
  0.00000000E+00  0.00000000E+00  0.00000000E+00
  0.00000000E+00  0.00000000E+00  0.00000000E+00
  0.00000000E+00  0.00000000E+00  0.00000000E+00
  0.00000000E+00  0.00000000E+00  0.00000000E+00
  0.00000000E+00  0.00000000E+00  0.00000000E+00
  0.00000000E+00  0.00000000E+00  0.00000000E+00
  0.00000000E+00  0.00000000E+00  0.00000000E+00
  0.00000000E+00  0.00000000E+00  0.00000000E+00
  0.00000000E+00  0.00000000E+00  0.00000000E+00
  0.00000000E+00  0.00000000E+00  0.00000000E+00
  0.00000000E+00  0.00000000E+00  0.00000000E+00
  0.00000000E+00  0.00000000E+00  0.00000000E+00
  0.00000000E+00  0.00000000E+00  0.00000000E+00
  0.00000000E+00  0.00000000E+00  0.00000000E+00
  0.00000000E+00  0.00000000E+00  0.00000000E+00
  0.00000000E+00  0.00000000E+00  0.00000000E+00
  0.00000000E+00  0.00000000E+00  0.00000000E+00
  0.00000000E+00  0.00000000E+00  0.00000000E+00
  0.00000000E+00  0.00000000E+00  0.00000000E+00
  0.00000000E+00  0.00000000E+00  0.00000000E+00
