Sn16 H1 O32                             
   1.00000000000000     
     6.4768679999999996    0.0000000000000000    0.0000000000000000
     0.0000000000000000    6.8194220000000003    0.0000000000000000
     0.0000000000000000    0.0000000000000000   27.2776880000000013
   Sn   H    O 
    16     1    32
Selective dynamics
Direct
  0.2500000000000000  0.5000000000000000  0.4375000000000000   F   F   F
  0.7500000000000000  0.5000000000000000  0.4375000000000000   F   F   F
  0.2500000000000000  0.0000000000000000  0.3125000000000000   F   F   F
  0.7500000000000000  0.0000000000000000  0.3125000000000000   F   F   F
  0.0000000000000000  0.5000000000000000  0.3125000000000000   F   F   F
  0.5000000000000000  0.5000000000000000  0.3125000000000000   F   F   F
  0.0000000000000000  0.0000000000000000  0.4375000000000000   F   F   F
  0.5000000000000000  0.0000000000000000  0.4375000000000000   F   F   F
  0.2500000000000000  0.5139922962127285  0.6948740107524882   T   T   T
  0.7500000000000000  0.4918801579081439  0.6988633794239173   T   T   T
  0.2500000000000000  0.0029469916277735  0.5612857901721281   T   T   T
  0.7500000000000000  0.0038911201568575  0.5616871360010055   T   T   T
  0.0000234670097720  0.5020426600576451  0.5646972760741540   T   T   T
  0.4999765329902278  0.5020426600576451  0.5646972760741540   T   T   T
 -0.0081082198094102 -0.0093349829358412  0.6865545595900731   T   T   T
  0.5081082198094099 -0.0093349829358412  0.6865545595900731   T   T   T
  0.2500000000000000  0.2069441470595457  0.7470251284060158   T   T   T
  0.2500000000000000  0.8064400000000020  0.4375000000000000   F   F   F
  0.7500000000000000  0.8064400000000020  0.4375000000000000   F   F   F
  0.2500000000000000  0.3064400000000020  0.3125000000000000   F   F   F
  0.7500000000000000  0.3064400000000020  0.3125000000000000   F   F   F
  0.2500000000000000  0.1935599999999980  0.4375000000000000   F   F   F
  0.7500000000000000  0.1935599999999980  0.4375000000000000   F   F   F
  0.2500000000000000  0.6935599999999980  0.3125000000000000   F   F   F
  0.7500000000000000  0.6935599999999980  0.3125000000000000   F   F   F
  0.0000000000000000  0.5000000000000000  0.4858899999999977   F   F   F
  0.5000000000000000  0.5000000000000000  0.4858899999999977   F   F   F
  0.0000000000000000  0.0000000000000000  0.3608899999999977   F   F   F
  0.5000000000000000  0.0000000000000000  0.3608899999999977   F   F   F
  0.0000000000000000  0.5000000000000000  0.3891100000000023   F   F   F
  0.5000000000000000  0.5000000000000000  0.3891100000000023   F   F   F
  0.0000000000000000  0.0000000000000000  0.2641100000000023   F   F   F
  0.5000000000000000  0.0000000000000000  0.2641100000000023   F   F   F
  0.2500000000000000  0.8201877508447377  0.6967609518529395   T   T   T
  0.7500000000000000  0.8027539502564948  0.6974846610852485   T   T   T
  0.2500000000000000  0.3071120652907050  0.5639799842817008   T   T   T
  0.7500000000000000  0.3076719318899276  0.5644113658158347   T   T   T
  0.2500000000000000  0.1829043249870827  0.7113241768654235   T   T   T
  0.7500000000000000  0.1800121020878823  0.7005953524073977   T   T   T
  0.2500000000000000  0.6981902146566363  0.5648553487605826   T   T   T
  0.7500000000000000  0.6986459555895447  0.5648158527971968   T   T   T
  0.0063829620005912  0.4943252410340797  0.7417458862019468   T   T   T
  0.4936170379994087  0.4943252410340797  0.7417458862019468   T   T   T
  0.0018293326189004  0.0090549370566492  0.6127616743067118   T   T   T
  0.4981706673810996  0.0090549370566492  0.6127616743067118   T   T   T
  0.0013417100213040  0.4946937159456643  0.6429164011982601   T   T   T
  0.4986582899786962  0.4946937159456643  0.6429164011982601   T   T   T
 -0.0003751023116022  0.0017807163567683  0.5149890700767442   T   T   T
  0.5003751023116023  0.0017807163567683  0.5149890700767442   T   T   T
 
  0.00000000E+00  0.00000000E+00  0.00000000E+00
  0.00000000E+00  0.00000000E+00  0.00000000E+00
  0.00000000E+00  0.00000000E+00  0.00000000E+00
  0.00000000E+00  0.00000000E+00  0.00000000E+00
  0.00000000E+00  0.00000000E+00  0.00000000E+00
  0.00000000E+00  0.00000000E+00  0.00000000E+00
  0.00000000E+00  0.00000000E+00  0.00000000E+00
  0.00000000E+00  0.00000000E+00  0.00000000E+00
  0.00000000E+00  0.00000000E+00  0.00000000E+00
  0.00000000E+00  0.00000000E+00  0.00000000E+00
  0.00000000E+00  0.00000000E+00  0.00000000E+00
  0.00000000E+00  0.00000000E+00  0.00000000E+00
  0.00000000E+00  0.00000000E+00  0.00000000E+00
  0.00000000E+00  0.00000000E+00  0.00000000E+00
  0.00000000E+00  0.00000000E+00  0.00000000E+00
  0.00000000E+00  0.00000000E+00  0.00000000E+00
  0.00000000E+00  0.00000000E+00  0.00000000E+00
  0.00000000E+00  0.00000000E+00  0.00000000E+00
  0.00000000E+00  0.00000000E+00  0.00000000E+00
  0.00000000E+00  0.00000000E+00  0.00000000E+00
  0.00000000E+00  0.00000000E+00  0.00000000E+00
  0.00000000E+00  0.00000000E+00  0.00000000E+00
  0.00000000E+00  0.00000000E+00  0.00000000E+00
  0.00000000E+00  0.00000000E+00  0.00000000E+00
  0.00000000E+00  0.00000000E+00  0.00000000E+00
  0.00000000E+00  0.00000000E+00  0.00000000E+00
  0.00000000E+00  0.00000000E+00  0.00000000E+00
  0.00000000E+00  0.00000000E+00  0.00000000E+00
  0.00000000E+00  0.00000000E+00  0.00000000E+00
  0.00000000E+00  0.00000000E+00  0.00000000E+00
  0.00000000E+00  0.00000000E+00  0.00000000E+00
  0.00000000E+00  0.00000000E+00  0.00000000E+00
  0.00000000E+00  0.00000000E+00  0.00000000E+00
  0.00000000E+00  0.00000000E+00  0.00000000E+00
  0.00000000E+00  0.00000000E+00  0.00000000E+00
  0.00000000E+00  0.00000000E+00  0.00000000E+00
  0.00000000E+00  0.00000000E+00  0.00000000E+00
  0.00000000E+00  0.00000000E+00  0.00000000E+00
  0.00000000E+00  0.00000000E+00  0.00000000E+00
  0.00000000E+00  0.00000000E+00  0.00000000E+00
  0.00000000E+00  0.00000000E+00  0.00000000E+00
  0.00000000E+00  0.00000000E+00  0.00000000E+00
  0.00000000E+00  0.00000000E+00  0.00000000E+00
  0.00000000E+00  0.00000000E+00  0.00000000E+00
  0.00000000E+00  0.00000000E+00  0.00000000E+00
  0.00000000E+00  0.00000000E+00  0.00000000E+00
  0.00000000E+00  0.00000000E+00  0.00000000E+00
  0.00000000E+00  0.00000000E+00  0.00000000E+00
  0.00000000E+00  0.00000000E+00  0.00000000E+00
