Sn16 H1 O32
1.0
   6.4768679999999996    0.0000000000000000    0.0000000000000000
   0.0000000000000000    6.8194220000000003    0.0000000000000000
   0.0000000000000000    0.0000000000000000   27.2776880000000013
Sn H O
16 1 32
Selective dynamics
direct
   0.2500000000000000    0.5000000000000000    0.4375000000000000 F F F Sn
   0.7500000000000000    0.5000000000000000    0.4375000000000000 F F F Sn
   0.2500000000000000    0.0000000000000000    0.3125000000000000 F F F Sn
   0.7500000000000000    0.0000000000000000    0.3125000000000000 F F F Sn
   0.0000000000000000    0.5000000000000000    0.3125000000000000 F F F Sn
   0.5000000000000000    0.5000000000000000    0.3125000000000000 F F F Sn
   0.0000000000000000    0.0000000000000000    0.4375000000000000 F F F Sn
   0.5000000000000000    0.0000000000000000    0.4375000000000000 F F F Sn
   0.2500000000000000    0.5000000000000000    0.6875000000000000 T T T Sn
   0.7500000000000000    0.5000000000000000    0.6875000000000000 T T T Sn
   0.2500000000000000    0.0000000000000000    0.5625000000000000 T T T Sn
   0.7500000000000000    0.0000000000000000    0.5625000000000000 T T T Sn
   0.0000000000000000    0.5000000000000000    0.5625000000000000 T T T Sn
   0.5000000000000000    0.5000000000000000    0.5625000000000000 T T T Sn
   0.0000000000000000    0.0000000000000000    0.6875000000000000 T T T Sn
   0.5000000000000000    0.0000000000000000    0.6875000000000000 T T T Sn
   0.2500000000000000    0.1935600000000000    0.7241599984573472 T T T H
   0.2500000000000000    0.8064400000000000    0.4375000000000000 F F F O
   0.7500000000000000    0.8064400000000000    0.4375000000000000 F F F O
   0.2500000000000000    0.3064400000000000    0.3125000000000000 F F F O
   0.7500000000000000    0.3064400000000000    0.3125000000000000 F F F O
   0.2500000000000000    0.1935600000000000    0.4375000000000000 F F F O
   0.7500000000000000    0.1935600000000000    0.4375000000000000 F F F O
   0.2500000000000000    0.6935600000000000    0.3125000000000000 F F F O
   0.7500000000000000    0.6935600000000000    0.3125000000000000 F F F O
   0.0000000000000000    0.5000000000000000    0.4858900000000000 F F F O
   0.5000000000000000    0.5000000000000000    0.4858900000000000 F F F O
   0.0000000000000000    0.0000000000000000    0.3608900000000000 F F F O
   0.5000000000000000    0.0000000000000000    0.3608900000000000 F F F O
   0.0000000000000000    0.5000000000000000    0.3891100000000001 F F F O
   0.5000000000000000    0.5000000000000000    0.3891100000000001 F F F O
   0.0000000000000000    0.0000000000000000    0.2641100000000000 F F F O
   0.5000000000000000    0.0000000000000000    0.2641100000000000 F F F O
   0.2500000000000000    0.8064400000000000    0.6875000000000000 T T T O
   0.7500000000000000    0.8064400000000000    0.6875000000000000 T T T O
   0.2500000000000000    0.3064400000000000    0.5625000000000000 T T T O
   0.7500000000000000    0.3064400000000000    0.5625000000000000 T T T O
   0.2500000000000000    0.1935600000000000    0.6875000000000000 T T T O
   0.7500000000000000    0.1935600000000000    0.6875000000000000 T T T O
   0.2500000000000000    0.6935600000000000    0.5625000000000000 T T T O
   0.7500000000000000    0.6935600000000000    0.5625000000000000 T T T O
   0.0000000000000000    0.5000000000000000    0.7358900000000000 T T T O
   0.5000000000000000    0.5000000000000000    0.7358900000000000 T T T O
   0.0000000000000000    0.0000000000000000    0.6108900000000000 T T T O
   0.5000000000000000    0.0000000000000000    0.6108900000000000 T T T O
   0.0000000000000000    0.5000000000000000    0.6391100000000000 T T T O
   0.5000000000000000    0.5000000000000000    0.6391100000000000 T T T O
   0.0000000000000000    0.0000000000000000    0.5141100000000000 T T T O
   0.5000000000000000    0.0000000000000000    0.5141100000000000 T T T O
