Sn16 H1 O34                             
   1.00000000000000     
     6.4768679999999996    0.0000000000000000    0.0000000000000000
     0.0000000000000000    6.8194220000000003    0.0000000000000000
     0.0000000000000000    0.0000000000000000   27.2776880000000013
   Sn   H    O 
    16     1    34
Selective dynamics
Direct
  0.2500000000000000  0.5000000000000000  0.4375000000000000   F   F   F
  0.7500000000000000  0.5000000000000000  0.4375000000000000   F   F   F
  0.2500000000000000  0.0000000000000000  0.3125000000000000   F   F   F
  0.7500000000000000  0.0000000000000000  0.3125000000000000   F   F   F
  0.0000000000000000  0.5000000000000000  0.3125000000000000   F   F   F
  0.5000000000000000  0.5000000000000000  0.3125000000000000   F   F   F
  0.0000000000000000  0.0000000000000000  0.4375000000000000   F   F   F
  0.5000000000000000  0.0000000000000000  0.4375000000000000   F   F   F
  0.2513281052284131  0.4966341364018578  0.6961641343938503   T   T   T
  0.7479695210512811  0.4967750900020917  0.6959875733719830   T   T   T
  0.2480773569380257 -0.0002713368228436  0.5619260088693809   T   T   T
  0.7509195701467224 -0.0003692576705582  0.5619943968761807   T   T   T
 -0.0007127179025056  0.4993671577542071  0.5657180027437324   T   T   T
  0.4992080370984141  0.4999978257180644  0.5653270620483172   T   T   T
 -0.0010343011779861  0.0011255342559307  0.6891477729850204   T   T   T
  0.4993211776732677 -0.0055653035022083  0.6843596000561553   T   T   T
  0.8817665065774156  0.9555137046725134  0.8310593572780534   T   T   T
  0.2500000000000000  0.8064400000000020  0.4375000000000000   F   F   F
  0.7500000000000000  0.8064400000000020  0.4375000000000000   F   F   F
  0.2500000000000000  0.3064400000000020  0.3125000000000000   F   F   F
  0.7500000000000000  0.3064400000000020  0.3125000000000000   F   F   F
  0.2500000000000000  0.1935599999999980  0.4375000000000000   F   F   F
  0.7500000000000000  0.1935599999999980  0.4375000000000000   F   F   F
  0.2500000000000000  0.6935599999999980  0.3125000000000000   F   F   F
  0.7500000000000000  0.6935599999999980  0.3125000000000000   F   F   F
  0.0000000000000000  0.5000000000000000  0.4858899999999977   F   F   F
  0.5000000000000000  0.5000000000000000  0.4858899999999977   F   F   F
  0.0000000000000000  0.0000000000000000  0.3608899999999977   F   F   F
  0.5000000000000000  0.0000000000000000  0.3608899999999977   F   F   F
  0.0000000000000000  0.5000000000000000  0.3891100000000023   F   F   F
  0.5000000000000000  0.5000000000000000  0.3891100000000023   F   F   F
  0.0000000000000000  0.0000000000000000  0.2641100000000023   F   F   F
  0.5000000000000000  0.0000000000000000  0.2641100000000023   F   F   F
  0.2506320426389407  0.8103096004186574  0.6949099045906885   T   T   T
  0.7484327193846282  0.8098528863870895  0.6941728058649438   T   T   T
  0.2491890406937209  0.3047678231964917  0.5629537181873115   T   T   T
  0.7493434417140129  0.3047776366733297  0.5630901443846297   T   T   T
  0.2550690753410947  0.1842042908509638  0.6943283819227454   T   T   T
  0.7431524817329060  0.1842997104932249  0.6945174297970902   T   T   T
  0.2483604030060748  0.6945667302837325  0.5632763360141964   T   T   T
  0.7498392208664191  0.6948799163608632  0.5633265929833146   T   T   T
 -0.0006090667682239  0.4909270113074422  0.7411637008350660   T   T   T
  0.4999420232340079  0.4995760399538962  0.7415776005556795   T   T   T
 -0.0004197941300881  0.0004718669348656  0.6124224272239079   T   T   T
  0.4990777760012960 -0.0021115583936356  0.6103862518427544   T   T   T
 -0.0003555536135347  0.4963431153643293  0.6426286275390705   T   T   T
  0.4993596630257318  0.4998316967196509  0.6421064180077016   T   T   T
 -0.0004542218838197 -0.0004128573919081  0.5142029692759087   T   T   T
  0.4997181458865749 -0.0001326698852153  0.5142280961822132   T   T   T
  0.0234155654028967  0.0168327357611076  0.7738961663567862   T   T   T
  0.8418264438297578  0.9604480787136335  0.7962163909271942   T   T   T
 
  0.00000000E+00  0.00000000E+00  0.00000000E+00
  0.00000000E+00  0.00000000E+00  0.00000000E+00
  0.00000000E+00  0.00000000E+00  0.00000000E+00
  0.00000000E+00  0.00000000E+00  0.00000000E+00
  0.00000000E+00  0.00000000E+00  0.00000000E+00
  0.00000000E+00  0.00000000E+00  0.00000000E+00
  0.00000000E+00  0.00000000E+00  0.00000000E+00
  0.00000000E+00  0.00000000E+00  0.00000000E+00
  0.00000000E+00  0.00000000E+00  0.00000000E+00
  0.00000000E+00  0.00000000E+00  0.00000000E+00
  0.00000000E+00  0.00000000E+00  0.00000000E+00
  0.00000000E+00  0.00000000E+00  0.00000000E+00
  0.00000000E+00  0.00000000E+00  0.00000000E+00
  0.00000000E+00  0.00000000E+00  0.00000000E+00
  0.00000000E+00  0.00000000E+00  0.00000000E+00
  0.00000000E+00  0.00000000E+00  0.00000000E+00
  0.00000000E+00  0.00000000E+00  0.00000000E+00
  0.00000000E+00  0.00000000E+00  0.00000000E+00
  0.00000000E+00  0.00000000E+00  0.00000000E+00
  0.00000000E+00  0.00000000E+00  0.00000000E+00
  0.00000000E+00  0.00000000E+00  0.00000000E+00
  0.00000000E+00  0.00000000E+00  0.00000000E+00
  0.00000000E+00  0.00000000E+00  0.00000000E+00
  0.00000000E+00  0.00000000E+00  0.00000000E+00
  0.00000000E+00  0.00000000E+00  0.00000000E+00
  0.00000000E+00  0.00000000E+00  0.00000000E+00
  0.00000000E+00  0.00000000E+00  0.00000000E+00
  0.00000000E+00  0.00000000E+00  0.00000000E+00
  0.00000000E+00  0.00000000E+00  0.00000000E+00
  0.00000000E+00  0.00000000E+00  0.00000000E+00
  0.00000000E+00  0.00000000E+00  0.00000000E+00
  0.00000000E+00  0.00000000E+00  0.00000000E+00
  0.00000000E+00  0.00000000E+00  0.00000000E+00
  0.00000000E+00  0.00000000E+00  0.00000000E+00
  0.00000000E+00  0.00000000E+00  0.00000000E+00
  0.00000000E+00  0.00000000E+00  0.00000000E+00
  0.00000000E+00  0.00000000E+00  0.00000000E+00
  0.00000000E+00  0.00000000E+00  0.00000000E+00
  0.00000000E+00  0.00000000E+00  0.00000000E+00
  0.00000000E+00  0.00000000E+00  0.00000000E+00
  0.00000000E+00  0.00000000E+00  0.00000000E+00
  0.00000000E+00  0.00000000E+00  0.00000000E+00
  0.00000000E+00  0.00000000E+00  0.00000000E+00
  0.00000000E+00  0.00000000E+00  0.00000000E+00
  0.00000000E+00  0.00000000E+00  0.00000000E+00
  0.00000000E+00  0.00000000E+00  0.00000000E+00
  0.00000000E+00  0.00000000E+00  0.00000000E+00
  0.00000000E+00  0.00000000E+00  0.00000000E+00
  0.00000000E+00  0.00000000E+00  0.00000000E+00
  0.00000000E+00  0.00000000E+00  0.00000000E+00
  0.00000000E+00  0.00000000E+00  0.00000000E+00
