P1 H2 Ir16 O36                          
   1.00000000000000     
     6.3822810800000003    0.0000000000000000    0.0000000000000004
     0.0000000000000010    6.4172767899999998    0.0000000000000004
     0.0000000000000000    0.0000000000000000   32.0863839299999967
   P    H    Ir   O 
     1     2    16    36
Selective dynamics
Direct
  0.2667535062353295  0.0512128626899179  0.4354248724632185   T   T   T
  0.2012082827856979  0.7940878163089233  0.4770783918397168   T   T   T
  0.3908634429777481  0.3645843546561839  0.4296721228321198   T   T   T
  0.2500000000000000  0.5000000000000000  0.1499999999999986   F   F   F
  0.7500000000000000  0.5000000000000000  0.1499999999999986   F   F   F
  0.2500000000000000  0.0000000000000000  0.0499999999999972   F   F   F
  0.7500000000000000  0.0000000000000000  0.0499999999999972   F   F   F
  0.0000000000000000  0.5000000000000000  0.0499999999999972   F   F   F
  0.5000000000000000  0.5000000000000000  0.0499999999999972   F   F   F
  0.0000000000000000  0.0000000000000000  0.1499999999999986   F   F   F
  0.5000000000000000  0.0000000000000000  0.1499999999999986   F   F   F
  0.2490920447477460  0.4999210377884018  0.3493187892578308   T   T   T
  0.7513706583591963  0.4981974069994072  0.3506591481918976   T   T   T
  0.2499928814308800  0.0003554991677056  0.2501267950238680   T   T   T
  0.7500166985082141  0.0000815701779161  0.2496685900482757   T   T   T
 -0.0002098996314477  0.5004326525720000  0.2499077069815754   T   T   T
  0.5001533643686847  0.5002274565227145  0.2500153828835143   T   T   T
  0.0047891134661270 -0.0003380650279340  0.3499532318781058   T   T   T
  0.5009273791866461 -0.0020594737212902  0.3493336690817314   T   T   T
  0.0000000000000000  0.5000000000000000  0.1117544100000032   F   F   F
  0.5000000000000000  0.5000000000000000  0.1117544100000032   F   F   F
  0.0000000000000000  0.0000000000000000  0.0117544100000018   F   F   F
  0.5000000000000000  0.0000000000000000  0.0117544100000018   F   F   F
  0.2500000000000000  0.8087720600000026  0.1499999999999986   F   F   F
  0.7500000000000000  0.8087720600000026  0.1499999999999986   F   F   F
  0.2500000000000000  0.3087720600000026  0.0499999999999972   F   F   F
  0.7500000000000000  0.3087720600000026  0.0499999999999972   F   F   F
  0.0000000000000000  0.5000000000000000  0.1882455900000011   F   F   F
  0.5000000000000000  0.5000000000000000  0.1882455900000011   F   F   F
  0.0000000000000000  0.0000000000000000  0.0882455899999997   F   F   F
  0.5000000000000000  0.0000000000000000  0.0882455899999997   F   F   F
  0.2500000000000000  0.1912279399999974  0.1499999999999986   F   F   F
  0.7500000000000000  0.1912279399999974  0.1499999999999986   F   F   F
  0.2500000000000000  0.6912279399999974  0.0499999999999972   F   F   F
  0.7500000000000000  0.6912279399999974  0.0499999999999972   F   F   F
 -0.0018479134176345  0.5008699550923777  0.3112992482950434   T   T   T
  0.5019695439220530  0.4998863525625085  0.3115402797379308   T   T   T
  0.0007463455504990  0.0002408045203795  0.2116827880168072   T   T   T
  0.4992044062477149  0.0006606199866328  0.2116339547707423   T   T   T
  0.2518250441878123  0.8067393259879948  0.3474186444029683   T   T   T
  0.7520276991301800  0.8066839626404561  0.3513499921127434   T   T   T
  0.2498397017370766  0.3089945622420916  0.2499179353143343   T   T   T
  0.7500839788935815  0.3086472446266968  0.2495536870727942   T   T   T
  0.0026334412706223  0.5018579867174537  0.3866064642470880   T   T   T
  0.4956702952766780  0.4905672176443486  0.3874935917681200   T   T   T
  0.9966654125081524  0.9986904321952651  0.2880994048740564   T   T   T
  0.5035953360470532  0.0012122485007853  0.2878019952162487   T   T   T
  0.2522138276131543  0.1918549726611234  0.3476148302595258   T   T   T
  0.7520214857280977  0.1900204014006653  0.3511722265142143   T   T   T
  0.2502725990895486  0.6917692970094997  0.2498262996233960   T   T   T
  0.7497017904736804  0.6918298607632480  0.2494451728961133   T   T   T
  0.2560957675000446  0.9359437751151224  0.4789037975638175   T   T   T
  0.0550452317818919  0.0070592391203439  0.4133308000138743   T   T   T
  0.2968396833527820  0.2838546328263567  0.4493262491629350   T   T   T
  0.4677880210232112  0.9797696352504529  0.4122422132958323   T   T   T
 
  0.00000000E+00  0.00000000E+00  0.00000000E+00
  0.00000000E+00  0.00000000E+00  0.00000000E+00
  0.00000000E+00  0.00000000E+00  0.00000000E+00
  0.00000000E+00  0.00000000E+00  0.00000000E+00
  0.00000000E+00  0.00000000E+00  0.00000000E+00
  0.00000000E+00  0.00000000E+00  0.00000000E+00
  0.00000000E+00  0.00000000E+00  0.00000000E+00
  0.00000000E+00  0.00000000E+00  0.00000000E+00
  0.00000000E+00  0.00000000E+00  0.00000000E+00
  0.00000000E+00  0.00000000E+00  0.00000000E+00
  0.00000000E+00  0.00000000E+00  0.00000000E+00
  0.00000000E+00  0.00000000E+00  0.00000000E+00
  0.00000000E+00  0.00000000E+00  0.00000000E+00
  0.00000000E+00  0.00000000E+00  0.00000000E+00
  0.00000000E+00  0.00000000E+00  0.00000000E+00
  0.00000000E+00  0.00000000E+00  0.00000000E+00
  0.00000000E+00  0.00000000E+00  0.00000000E+00
  0.00000000E+00  0.00000000E+00  0.00000000E+00
  0.00000000E+00  0.00000000E+00  0.00000000E+00
  0.00000000E+00  0.00000000E+00  0.00000000E+00
  0.00000000E+00  0.00000000E+00  0.00000000E+00
  0.00000000E+00  0.00000000E+00  0.00000000E+00
  0.00000000E+00  0.00000000E+00  0.00000000E+00
  0.00000000E+00  0.00000000E+00  0.00000000E+00
  0.00000000E+00  0.00000000E+00  0.00000000E+00
  0.00000000E+00  0.00000000E+00  0.00000000E+00
  0.00000000E+00  0.00000000E+00  0.00000000E+00
  0.00000000E+00  0.00000000E+00  0.00000000E+00
  0.00000000E+00  0.00000000E+00  0.00000000E+00
  0.00000000E+00  0.00000000E+00  0.00000000E+00
  0.00000000E+00  0.00000000E+00  0.00000000E+00
  0.00000000E+00  0.00000000E+00  0.00000000E+00
  0.00000000E+00  0.00000000E+00  0.00000000E+00
  0.00000000E+00  0.00000000E+00  0.00000000E+00
  0.00000000E+00  0.00000000E+00  0.00000000E+00
  0.00000000E+00  0.00000000E+00  0.00000000E+00
  0.00000000E+00  0.00000000E+00  0.00000000E+00
  0.00000000E+00  0.00000000E+00  0.00000000E+00
  0.00000000E+00  0.00000000E+00  0.00000000E+00
  0.00000000E+00  0.00000000E+00  0.00000000E+00
  0.00000000E+00  0.00000000E+00  0.00000000E+00
  0.00000000E+00  0.00000000E+00  0.00000000E+00
  0.00000000E+00  0.00000000E+00  0.00000000E+00
  0.00000000E+00  0.00000000E+00  0.00000000E+00
  0.00000000E+00  0.00000000E+00  0.00000000E+00
  0.00000000E+00  0.00000000E+00  0.00000000E+00
  0.00000000E+00  0.00000000E+00  0.00000000E+00
  0.00000000E+00  0.00000000E+00  0.00000000E+00
  0.00000000E+00  0.00000000E+00  0.00000000E+00
  0.00000000E+00  0.00000000E+00  0.00000000E+00
  0.00000000E+00  0.00000000E+00  0.00000000E+00
  0.00000000E+00  0.00000000E+00  0.00000000E+00
  0.00000000E+00  0.00000000E+00  0.00000000E+00
  0.00000000E+00  0.00000000E+00  0.00000000E+00
  0.00000000E+00  0.00000000E+00  0.00000000E+00
