Sn16 O31                                
   1.00000000000000     
     6.4768679999999996    0.0000000000000000    0.0000000000000000
     0.0000000000000000    6.8194220000000003    0.0000000000000000
     0.0000000000000000    0.0000000000000000   27.2776880000000013
   Sn   O 
    16    31
Selective dynamics
Direct
  0.2500000000000000  0.5000000000000000  0.4375000000000000   F   F   F
  0.7500000000000000  0.5000000000000000  0.4375000000000000   F   F   F
  0.2500000000000000  0.0000000000000000  0.3125000000000000   F   F   F
  0.7500000000000000  0.0000000000000000  0.3125000000000000   F   F   F
  0.0000000000000000  0.5000000000000000  0.3125000000000000   F   F   F
  0.5000000000000000  0.5000000000000000  0.3125000000000000   F   F   F
  0.0000000000000000  0.0000000000000000  0.4375000000000000   F   F   F
  0.5000000000000000  0.0000000000000000  0.4375000000000000   F   F   F
  0.2500000000000000  0.5121840659317329  0.6959279756660997   T   T   T
  0.7500000000000000  0.5037085331308099  0.6970825526065676   T   T   T
  0.2500000000000000 -0.0007219290320254  0.5615635914892290   T   T   T
  0.7500000000000000 -0.0004570676465536  0.5623812940333535   T   T   T
  0.0002142519926922  0.4994996555409579  0.5651005427091730   T   T   T
  0.4997857480073078  0.4994996555409579  0.5651005427091730   T   T   T
  0.0029835194251175  0.0124970650557361  0.6875747344541148   T   T   T
  0.4970164805748825  0.0124970650557361  0.6875747344541148   T   T   T
  0.2500000000000000  0.8064400000000020  0.4375000000000000   F   F   F
  0.7500000000000000  0.8064400000000020  0.4375000000000000   F   F   F
  0.2500000000000000  0.3064400000000020  0.3125000000000000   F   F   F
  0.7500000000000000  0.3064400000000020  0.3125000000000000   F   F   F
  0.2500000000000000  0.1935599999999980  0.4375000000000000   F   F   F
  0.7500000000000000  0.1935599999999980  0.4375000000000000   F   F   F
  0.2500000000000000  0.6935599999999980  0.3125000000000000   F   F   F
  0.7500000000000000  0.6935599999999980  0.3125000000000000   F   F   F
  0.0000000000000000  0.5000000000000000  0.4858899999999977   F   F   F
  0.5000000000000000  0.5000000000000000  0.4858899999999977   F   F   F
  0.0000000000000000  0.0000000000000000  0.3608899999999977   F   F   F
  0.5000000000000000  0.0000000000000000  0.3608899999999977   F   F   F
  0.0000000000000000  0.5000000000000000  0.3891100000000023   F   F   F
  0.5000000000000000  0.5000000000000000  0.3891100000000023   F   F   F
  0.0000000000000000  0.0000000000000000  0.2641100000000023   F   F   F
  0.5000000000000000  0.0000000000000000  0.2641100000000023   F   F   F
  0.2500000000000000  0.8174674199385451  0.7009400778460514   T   T   T
  0.7500000000000000  0.8188073031244975  0.6967469622178897   T   T   T
  0.2500000000000000  0.3044152517871540  0.5631669414088607   T   T   T
  0.7500000000000000  0.3047233591025107  0.5633689908866678   T   T   T
  0.7500000000000000  0.1925544701058180  0.6947183344787262   T   T   T
  0.2500000000000000  0.6940407471306486  0.5637641870865850   T   T   T
  0.7500000000000000  0.6942434135287252  0.5642963832847097   T   T   T
  0.0054860438213771  0.4716419675414246  0.7403275320669781   T   T   T
  0.4945139561786227  0.4716419675414246  0.7403275320669781   T   T   T
  0.0018165838044176  0.0000974942539185  0.6117820366727176   T   T   T
  0.4981834161955827  0.0000974942539185  0.6117820366727176   T   T   T
  0.0026173445377218  0.4966823518123540  0.6424035443079157   T   T   T
  0.4973826554622780  0.4966823518123540  0.6424035443079157   T   T   T
 -0.0006753444256438 -0.0022275478454170  0.5143922173520070   T   T   T
  0.5006753444256437 -0.0022275478454170  0.5143922173520070   T   T   T
 
  0.00000000E+00  0.00000000E+00  0.00000000E+00
  0.00000000E+00  0.00000000E+00  0.00000000E+00
  0.00000000E+00  0.00000000E+00  0.00000000E+00
  0.00000000E+00  0.00000000E+00  0.00000000E+00
  0.00000000E+00  0.00000000E+00  0.00000000E+00
  0.00000000E+00  0.00000000E+00  0.00000000E+00
  0.00000000E+00  0.00000000E+00  0.00000000E+00
  0.00000000E+00  0.00000000E+00  0.00000000E+00
  0.00000000E+00  0.00000000E+00  0.00000000E+00
  0.00000000E+00  0.00000000E+00  0.00000000E+00
  0.00000000E+00  0.00000000E+00  0.00000000E+00
  0.00000000E+00  0.00000000E+00  0.00000000E+00
  0.00000000E+00  0.00000000E+00  0.00000000E+00
  0.00000000E+00  0.00000000E+00  0.00000000E+00
  0.00000000E+00  0.00000000E+00  0.00000000E+00
  0.00000000E+00  0.00000000E+00  0.00000000E+00
  0.00000000E+00  0.00000000E+00  0.00000000E+00
  0.00000000E+00  0.00000000E+00  0.00000000E+00
  0.00000000E+00  0.00000000E+00  0.00000000E+00
  0.00000000E+00  0.00000000E+00  0.00000000E+00
  0.00000000E+00  0.00000000E+00  0.00000000E+00
  0.00000000E+00  0.00000000E+00  0.00000000E+00
  0.00000000E+00  0.00000000E+00  0.00000000E+00
  0.00000000E+00  0.00000000E+00  0.00000000E+00
  0.00000000E+00  0.00000000E+00  0.00000000E+00
  0.00000000E+00  0.00000000E+00  0.00000000E+00
  0.00000000E+00  0.00000000E+00  0.00000000E+00
  0.00000000E+00  0.00000000E+00  0.00000000E+00
  0.00000000E+00  0.00000000E+00  0.00000000E+00
  0.00000000E+00  0.00000000E+00  0.00000000E+00
  0.00000000E+00  0.00000000E+00  0.00000000E+00
  0.00000000E+00  0.00000000E+00  0.00000000E+00
  0.00000000E+00  0.00000000E+00  0.00000000E+00
  0.00000000E+00  0.00000000E+00  0.00000000E+00
  0.00000000E+00  0.00000000E+00  0.00000000E+00
  0.00000000E+00  0.00000000E+00  0.00000000E+00
  0.00000000E+00  0.00000000E+00  0.00000000E+00
  0.00000000E+00  0.00000000E+00  0.00000000E+00
  0.00000000E+00  0.00000000E+00  0.00000000E+00
  0.00000000E+00  0.00000000E+00  0.00000000E+00
  0.00000000E+00  0.00000000E+00  0.00000000E+00
  0.00000000E+00  0.00000000E+00  0.00000000E+00
  0.00000000E+00  0.00000000E+00  0.00000000E+00
  0.00000000E+00  0.00000000E+00  0.00000000E+00
  0.00000000E+00  0.00000000E+00  0.00000000E+00
  0.00000000E+00  0.00000000E+00  0.00000000E+00
  0.00000000E+00  0.00000000E+00  0.00000000E+00
