ALGO = Fast
EDIFF = 1e-06
EDIFFG = -0.05
ENCUT = 500
GGA = Pe
IBRION = 2
ICHARG = 2
ISIF = 3
ISMEAR = 1
ISPIN = 2
LASPH = True
LCHARG = False
LMAXMIX = 6
LREAL = Auto
LWAVE = False
MAGMOM = 6*0.6
NELM = 60
NELMIN = 4
NPAR = 4
NSW = 500
PREC = Accurate
SIGMA = 0.05
